 # Version information for this restart file 
 # current date 2023-12-04 12:44:06.497
 # current working dir /scratch/work/courses/CHEM-GA-2671-2023fa/students/sw4384/comp-lab-class-2023/Week12/Runs-Proton
 # Program compiled at                              Sat Dec 12 18:27:15 EST 2020
 # Program compiled on                                         cs001.nyu.cluster
 # Program compiled for                                                nyu-intel
 # Source code revision number                                       git:8c64c6e
 &GLOBAL
   PRINT_LEVEL  LOW
   PROJECT_NAME proton_aimd_1ns_every0.5fs
   RUN_TYPE  MD
   WALLTIME 21600
 &END GLOBAL
 &MOTION
   &GEO_OPT
     OPTIMIZER  BFGS
     MAX_ITER  100
     MAX_DR     3.0000000000000001E-03
     &BFGS
     &END BFGS
   &END GEO_OPT
   &MD
     ENSEMBLE  NVT
     STEPS  2000
     TIMESTEP     4.9999999999999994E-01
     STEP_START_VAL  2000
     TIME_START_VAL     9.9999999999998226E+02
     ECONS_START_VAL    -1.1025841879244936E+03
     TEMPERATURE     3.0000000000000000E+02
     &THERMOSTAT
       TYPE  GLE
       REGION  MASSIVE
       &GLE
         NDIM  5
         A_SCALE     1.0000000000000000E+00
         A_LIST     1.8595758612559999E+02    2.7263853498399998E-01    1.1526100454610001E+01   -3.6414578262600003E+01 \
             2.3173375816020001E+02
         A_LIST    -2.7809524712060002E-01    8.5951591808710006E-05    7.2189048017650004E-01   -1.9844539343859999E-01 \
             4.2409257583420001E-01
         A_LIST    -1.4825808131210000E+01   -7.2189048017650004E-01    1.3590902121280000E+00    5.1498896280349999E+00 \
            -9.9949268450990001E+00
         A_LIST    -1.0372189126880000E+01    1.9844539343859999E-01   -5.1498896280349999E+00    2.6661910891169999E+01 \
             1.1507715495310000E+01
         A_LIST     2.1801346360420001E+02   -4.2409257583420001E-01    9.9949268450990001E+00   -1.1507715495310000E+01 \
             3.0958394565589998E+02
         &THERMOSTAT_ENERGY
               2.1030052344032080E-03
              -9.9079358747804019E-04
              -4.8745138396573268E-03
               5.1158051410025709E-03
              -2.0404008171011206E-02
               3.6222752636027766E-03
              -5.5679701327190799E-03
               7.6227869635344626E-03
               4.6721190833503151E-03
               3.8864488601526460E-03
               1.2798353915505397E-02
              -2.6211960298018187E-03
              -8.0614501715563815E-03
               2.3844398218228397E-03
              -3.1907623014102442E-03
              -1.3931414712599011E-02
               6.6541846258743164E-03
              -4.0715458496122089E-03
              -3.0513155833990090E-03
              -2.0741068231498101E-03
               2.4758976305042659E-03
               6.7195668012364380E-03
              -1.2090085899222841E-02
              -5.2787791452526267E-03
              -1.8164361669155648E-03
              -1.3451269428442054E-03
              -1.6156544133351003E-03
               4.5315982480379467E-04
               3.3369427372468034E-04
               3.1840641928496324E-03
              -2.9047841474523148E-03
              -1.1539606547260543E-03
               3.1664382961589547E-03
               2.5415868288720844E-03
              -7.1834250404414820E-03
               1.2527825141655414E-02
              -2.2497516432354128E-03
              -2.1840768800248825E-03
               2.5145701566244363E-03
               2.4236149499795610E-05
               3.5195614994876757E-03
              -1.3350553188808992E-02
               1.1083788599314932E-02
               7.7499956347361577E-03
              -1.1927291437535978E-03
               3.8428111865117230E-03
               1.0877489561012848E-02
              -1.7071385960390692E-03
              -8.7828199167469301E-05
              -2.7766425497963649E-03
               4.2540941895863977E-03
               4.9467216965719488E-03
              -1.8327618556518402E-03
               2.5563218915582017E-03
              -2.0307403341481901E-03
               3.1312975509322234E-03
              -9.5511956715072410E-04
               3.8949642125322079E-03
               7.6862934012618834E-03
              -3.0087650458153754E-03
              -4.8175706218445752E-03
              -2.5310557922270794E-03
               1.9002094823608099E-02
              -4.1088835586706399E-03
               1.7048150756408895E-03
               2.1999479953545994E-03
              -1.3204209455174197E-02
               1.6490697409669641E-02
               1.7099315278997430E-02
              -3.6223135365017773E-03
              -6.2651378226598348E-03
              -1.0819017474407853E-02
               2.5288702656585901E-03
               3.7428861186828902E-05
               1.6591713378176812E-03
              -1.5170737656900371E-02
               3.5690444700934927E-03
               1.4641645445164955E-02
              -3.6969597354361374E-05
              -7.8811763315193278E-03
               2.5566293376395387E-03
              -7.3693298396226431E-03
               3.8474864576196412E-03
               1.7783705634214129E-03
               7.0489451898047900E-03
               6.5308801314018306E-03
               1.1894653753758578E-03
              -7.0221013580356196E-03
              -1.1846032137277575E-03
              -5.2471312645063295E-03
               3.8052489460336405E-03
              -7.4221004282525871E-03
              -2.2453066575768379E-03
               2.0390031798548087E-03
              -1.5401346856243113E-02
               7.8507767924860718E-03
               4.6197809806403280E-03
               9.9295138399781071E-04
               5.0428420431946177E-03
               6.9103465136001021E-03
              -7.3388109607694426E-03
              -7.5833266796781328E-03
              -4.6793218492117384E-03
              -1.0628894759615927E-02
               2.0156545821693834E-03
               1.2940170725126003E-02
               9.8451523056041455E-04
               1.8649841844664808E-03
               1.8450595489665129E-03
              -9.5021614636091952E-05
               7.4493655722717815E-03
               1.1252031559115522E-02
              -9.6412225129295665E-03
               9.5116614850205140E-04
               4.1635706060919753E-03
               3.9162467301461935E-03
              -1.3197566637746832E-02
              -2.2797850856387581E-03
              -1.2571819466403011E-03
               4.8419882428761974E-04
               7.4790370985775177E-03
               3.2564688020671373E-03
               5.9371307816547996E-03
              -2.3118198178583922E-03
              -1.0172955479014617E-02
              -1.1006355793490860E-02
              -1.5124662210426257E-03
               3.4912677140229186E-03
               7.0959497751153693E-03
               1.2575786949607357E-02
              -1.2453748194290740E-02
               5.5865358011934346E-03
              -1.5009312364715522E-03
               1.5781124499499553E-04
               8.6250768270303684E-03
               2.7972395222656049E-03
              -3.2556023776665584E-03
              -4.9918602712602711E-03
              -2.4789593120041662E-03
               2.5478112977512261E-03
               5.3768012837945500E-03
               4.8393148655711503E-03
               1.2308116677989750E-02
              -1.0442298834070069E-02
               1.2145031752716723E-02
              -6.2323329835382076E-03
               2.4459786045408238E-03
               9.8485100223150591E-03
              -2.1995024146167688E-02
               1.5676281308583929E-02
              -1.5806857993108627E-02
               1.0815175025005896E-02
               4.2673407935535828E-03
               9.5099498106423850E-03
               7.2710019229482005E-03
              -4.7691329438089925E-03
               1.9564316456350934E-03
               3.4075109649984868E-03
              -1.0255733322331673E-02
               5.0960143457695478E-03
              -4.4884275352213739E-03
              -4.8509270905735986E-03
               2.5609283934214105E-03
               5.7065836257648508E-03
               6.8612646856719790E-03
               7.1449162675942673E-02
              -3.2947588916752480E-03
               3.8235702551862563E-03
               3.0613110670746891E-02
               1.5086509852830002E-02
               7.0967984492965611E-02
               1.3910841386257821E-02
               5.3938378270034903E-03
               3.4179560825937517E-02
               1.6638898382511425E-03
               2.8725101028284033E-03
               1.7412375993466180E-03
               5.0360931558227821E-04
              -1.8315064696463258E-02
               2.2219690284163839E-04
              -1.2235952622680159E-02
               4.0602417613919695E-03
               9.2797312522806437E-03
              -1.9538049192265950E-03
              -1.1841531640130671E-03
              -2.2928290763188667E-03
               1.2117684240076965E-02
               1.0536816945126725E-03
              -1.5588340355089825E-02
              -1.0261052901349394E-02
              -5.5766147840673498E-03
               1.9205120889428332E-02
               7.8578117239650070E-03
              -5.7749239527529056E-03
               2.8457760563523728E-03
               1.1008134849905352E-02
              -6.2549372597007196E-03
               4.0390559891524342E-03
              -6.8947052006558054E-03
              -1.2225725118843548E-02
               7.9575230074241023E-03
               3.6656637789106638E-03
               1.6782983186820833E-03
               5.7290140283264386E-03
              -1.7578996612205761E-02
              -1.9430400211494538E-03
               1.1320039387721066E-02
               4.6532043966623820E-03
              -3.0673930181230585E-03
               3.3991623084364958E-03
               5.2283783400063118E-03
               1.8266071269797250E-03
               2.1974907763820878E-03
               8.3972882776869057E-03
              -5.2468090910256669E-03
               4.4131583472324541E-03
              -1.3991572850366093E-02
               7.2024583314609335E-03
               5.5977823093074225E-03
               1.8913150349575275E-03
               8.4701026719446364E-04
              -1.5712407678908503E-03
              -9.8265797064051030E-03
              -1.2007455775012465E-03
               1.8119928881214990E-02
              -7.0142554314700720E-03
               2.0861114581447993E-03
               4.4808375807700940E-03
              -2.8223071132802311E-03
              -1.6274643282898104E-03
              -1.6132371646670359E-03
               5.8598026194107890E-03
               1.0510282026530138E-02
              -3.4530415008350978E-03
              -3.5118587486814936E-03
              -1.2281568611894201E-04
               1.9095417631321051E-03
              -3.7459077059735855E-04
              -1.4487442950740963E-03
              -1.3873868857557840E-03
               7.8260670471308538E-03
               1.1453472207602525E-02
               2.6684775801670373E-05
               1.9860456389194283E-03
              -3.2286160874102658E-03
               1.9897248238333713E-03
              -1.0097894787490197E-03
              -1.6520200531928060E-03
              -3.2372890472594884E-03
              -8.2970781959806686E-03
               1.1792742912877883E-02
              -5.6433778383962437E-03
              -2.2940467662761312E-03
              -1.0726303976589524E-02
               7.0077473541309632E-03
              -4.2129832403042505E-03
               7.8603614268883725E-04
               2.2306596731344100E-03
              -1.3704905140620367E-03
               4.9051195528556175E-03
               5.8632132787670788E-03
               6.0430133072298655E-03
               1.3510329592257474E-02
              -5.5901979955928936E-03
              -2.2161745749206411E-04
               3.5900907717893627E-03
               5.4946596147244049E-03
              -1.6266533691750963E-03
              -4.7660740304672385E-03
               1.3582112785854897E-02
              -1.6257363207569427E-02
              -5.7930927583272713E-03
               1.2131970740941706E-02
               7.0495932389730807E-03
               3.2810861202775695E-03
               7.0874938305915834E-04
              -1.0743220867289899E-02
               6.9220121559577311E-03
               4.6284660018509876E-03
               1.1046074942150770E-04
              -3.1985956163350748E-03
              -8.4554477040405841E-03
               3.0920053983420892E-05
              -6.9924943250177498E-03
               6.0909951702428937E-03
               1.0507377599099230E-02
              -5.0563444694676565E-03
               7.5098867505084309E-04
              -1.1954977239979599E-02
              -2.9827555471212868E-03
               1.4996857904987324E-02
               1.5372396430733525E-03
              -2.9289048281006505E-03
              -8.2707628371071987E-03
               7.3867202212910665E-03
               9.1480109702360250E-03
              -1.4799397321297942E-02
               1.7197091670203148E-02
               1.0889356477636905E-02
              -1.4087334753765906E-02
              -5.5375076388035143E-04
              -3.0762003830845015E-03
               6.7391657482487087E-03
               1.3674767190497042E-03
              -3.0725006358288940E-03
              -7.6191580582736689E-03
               1.5217760176928525E-03
              -1.2534219028431136E-03
               2.0065696842665325E-03
               3.0820394465624372E-03
              -9.4091600723868272E-04
              -3.9808605946226447E-03
               4.5018995466022758E-03
              -4.0592768356354052E-03
               2.2799087413909705E-03
               5.1782702617062925E-03
              -2.3916257752602584E-03
              -3.1945021394535014E-03
              -1.4625930480852697E-02
              -1.0892920692556946E-02
              -1.2266801052209929E-03
               6.7518550309930503E-03
               4.6761054977789100E-03
               2.8465688556588743E-03
              -6.6713111608854049E-03
               7.4449304636394383E-03
               5.1702072326635286E-03
               5.7663793057421567E-03
              -2.7725403196239562E-03
               5.4870418863610148E-03
              -1.2234222191531483E-02
               7.3631324050420889E-03
               1.5862906233113920E-03
              -8.5623696301191459E-06
               3.7251915795171011E-03
              -2.0461592705341108E-03
               8.3448523620310612E-03
              -7.8175958855274466E-05
               6.8883205356811321E-03
              -2.6288298800228680E-03
              -9.9641768593970430E-03
              -1.6964725942811996E-03
               6.5321112893896851E-03
               3.5707200029727192E-03
               2.1394375003171316E-03
               4.5742580153846262E-03
               8.5727091382746291E-03
              -1.3044668399716963E-02
               1.4367337157098854E-02
              -4.3573111103104283E-03
              -3.9712596573922504E-03
               2.5251869808528195E-03
              -1.0389791433451591E-02
               2.7878041167065637E-03
              -2.4291568572353778E-03
              -4.2192446380397508E-03
               2.9112104608661035E-03
               1.1845786114175858E-03
              -1.2765546724585059E-02
               2.1936062610215181E-03
               4.9046443571611241E-03
              -9.4658166921739555E-03
               1.8012986456211570E-02
              -7.3585089735630433E-03
              -1.5328806603417263E-02
               3.1591688468353106E-03
               8.9104238119472393E-03
               8.1158026523998807E-03
              -1.2558134363369677E-02
              -6.0563094915800485E-03
              -3.3927996697876166E-03
               9.5713952965470386E-03
               1.1142298980730200E-03
              -4.1323800843609546E-03
              -2.4745225750154448E-03
               1.6377276747488356E-03
              -5.9547735583792075E-03
              -5.7631481300421906E-03
               8.3181824477875400E-03
               3.9010941682526270E-03
              -1.1409970488086025E-03
               7.3001966002022075E-03
              -4.1852292623135367E-03
              -1.2733566171377205E-03
              -1.7976650774900866E-02
              -1.9955389263508895E-03
               1.6877579572165064E-03
              -2.3812055637474692E-03
               8.3265072907407391E-03
               2.0392441446206522E-03
              -1.0970438896963166E-02
               6.0805782204797270E-03
               9.8892774086277229E-04
               3.2117723816935456E-03
               7.2118220719663718E-03
               5.2781269605549352E-03
               5.4134745239169081E-04
              -7.4345714399055114E-03
               1.5049656118670393E-03
               2.0358726009972678E-03
              -3.1323842061527093E-03
               3.1265059587451184E-03
              -4.8247387279385621E-03
              -8.6400399541607560E-03
               8.1101278689891029E-03
              -3.9786647496106026E-03
               8.3101496435344386E-03
              -9.6628622868991077E-04
              -1.8672805606793777E-03
               7.3201340765937186E-04
               4.1714411896416866E-03
              -5.1236397157199132E-03
               3.5350497670315006E-03
              -4.6953676147429274E-04
               2.2771357603733658E-03
               3.4127917636726148E-03
              -7.2430480361620276E-03
              -4.9590028577856556E-03
              -6.8991150179168641E-04
               3.7801346132315117E-03
               3.6220022491340377E-03
              -3.1480274137083582E-03
               1.1684710271298476E-03
              -8.4399896417887942E-04
               1.4074242219742090E-02
              -1.5796652087482332E-02
               2.5343751156708966E-03
              -4.6365683369552413E-03
              -7.2953663020407320E-04
              -7.1144337843647429E-04
              -1.2683050460830767E-02
              -2.9326707066239612E-03
              -1.6056933340843470E-02
               1.5332404206002728E-02
               1.8180117239187402E-02
               5.0533177487010056E-03
              -5.6381750292787709E-03
              -5.9237915143053009E-04
              -1.0201645700188335E-02
              -2.3820221325631793E-03
               1.7476425324275138E-02
              -1.2173214548697538E-03
              -6.9274014142879604E-03
               1.6770630905750601E-02
               3.3705808498081307E-03
               9.0513304555777854E-03
              -6.4833989631678853E-03
               8.5730774244997098E-03
              -2.5561830342842322E-03
              -5.7751023891755631E-03
              -1.3059587345647823E-03
              -9.2203888253991478E-03
               5.6735458683964271E-03
              -1.2895192998195880E-03
              -3.8658566687147736E-03
              -3.1249578389435317E-03
              -2.3047191148290718E-02
              -1.5378336291397489E-03
              -8.3168587211010676E-03
              -8.0245675319137906E-04
               1.2951312656475226E-02
               1.4901385590545092E-02
               4.4107363807326105E-04
               6.2749726802375652E-03
              -1.3727354902065792E-03
               8.3803161238916058E-03
              -1.1874621882546793E-02
              -1.3895522224554905E-03
               1.0094233745848908E-02
              -1.2697798246616118E-02
               3.7549569470665600E-03
              -9.9538670076187411E-04
               3.0421696626919471E-04
              -1.0059647192606983E-03
              -1.4066454030390961E-02
               5.1658108668319689E-03
               1.6481126639312700E-03
               1.0469750936314475E-02
              -8.2875862202082123E-03
              -6.7848671243544920E-03
              -3.9800711614432155E-03
               1.0187346055424192E-03
               9.0811494897140247E-03
               3.0709528200136946E-03
              -6.4058346079860651E-03
              -6.4704022103442122E-04
               2.8640211420948463E-03
              -1.2629638020864978E-02
               1.5671003014525991E-02
              -2.3379617788717526E-03
               7.7697870650099143E-03
               5.2110001900020535E-03
               9.6949438695088305E-03
              -1.0634114240206933E-02
              -2.1415740568289936E-04
              -8.4337188723087701E-03
               5.2759306731618820E-03
               5.2727687203674633E-03
              -2.4429428709715068E-04
               5.9335086898744368E-03
               5.4723816553976247E-05
               4.4617806780149986E-03
              -1.4281745590934284E-02
               1.9214315941791713E-02
               1.0901567866760246E-02
              -1.2366709816901593E-02
              -2.2309539458088457E-03
               2.5238577718548994E-03
               4.8204074044520297E-03
              -1.6374116323234196E-03
              -3.9580431291604537E-03
               9.4194406084725062E-03
              -3.3527435989274346E-03
              -1.4442886412883126E-02
               1.1481049892159544E-02
              -1.9853582952426351E-02
               9.3815525467469754E-04
               3.4661355003988824E-03
              -3.7646131219881977E-04
               9.5999202170813300E-03
              -1.7760726077495508E-02
               6.1747034402072389E-03
               4.2264667132599423E-03
               5.3672385879655025E-03
               8.7010989073694263E-04
               5.5491149205784476E-03
              -1.4627980717495598E-03
              -3.9727357784896319E-03
               3.0880509726450454E-03
               8.3889030702715621E-04
               1.7897537620787850E-02
               5.4534188609559736E-04
              -4.6550803922615590E-03
              -3.2695451296065659E-03
               4.3382742523177037E-03
               2.6334409302088222E-03
               1.7785570587444753E-03
              -7.9065437691898215E-03
               1.0200484260458353E-03
              -1.5896338961967967E-03
               9.5665680469238928E-04
               2.9480918611406552E-03
              -9.1760207113776582E-03
              -3.0102130236900667E-03
               2.5670543265641152E-03
              -4.5691009533517027E-03
               4.5862255652865495E-03
              -7.2888251278076222E-04
               5.8814335295650153E-03
               6.1571887690194324E-03
               2.7239528143102988E-03
              -1.4976873445893305E-02
              -5.4750409268201792E-03
               1.9921938293090873E-03
               4.4570886803821652E-03
              -2.1861766354453159E-03
              -1.3030895923494511E-03
               5.5321453416343870E-03
               4.6017751031780987E-03
               1.7566159757026515E-03
              -8.1897999103668073E-04
               2.0115856532983041E-03
               1.0384613803204089E-03
               7.9344338745114124E-03
              -3.6901013657805446E-03
              -3.9554329028903693E-03
               3.1904405407224864E-03
               1.2146845180661146E-02
               3.4608049174444009E-03
              -4.9613758119444089E-03
              -7.7912453383945472E-03
              -1.6394534544064347E-03
              -4.6691937687237456E-03
              -9.4974560038114768E-03
               2.4079116088297960E-03
               8.6349727699173949E-03
               1.5787632762882118E-02
               4.9259647269754899E-03
              -1.0977518276571820E-02
         &END THERMOSTAT_ENERGY
         &RNG_INIT
Wiener process for Thermostat # 1        1 F T T  -4.3866331554119464E-01        3463026290.0         996283881.0        3077134961.0        1575188103.0         352198642.0        1255594993.0             12345.0             12345.0             12345.0             12345.0             12345.0             12345.0             12345.0             12345.0             12345.0             12345.0             12345.0             12345.0
Wiener process for Thermostat # 2        1 F T T   6.1664168869435698E-01         581397078.0        3867423482.0         327967633.0        1486938113.0          26429212.0        4093174459.0        3692455944.0        1366884236.0        2968912127.0         335948734.0        4161675175.0         475798818.0        3692455944.0        1366884236.0        2968912127.0         335948734.0        4161675175.0         475798818.0
Wiener process for Thermostat # 3        1 F T T   2.0518696979926636E+00        1062843694.0        3278483557.0        2630284801.0         342499437.0         508306288.0         570022504.0        1015873554.0        1310354410.0        2249465273.0         994084013.0        2912484720.0        3876682925.0        1015873554.0        1310354410.0        2249465273.0         994084013.0        2912484720.0        3876682925.0
Wiener process for Thermostat # 4        1 F T T   8.6483655468840070E-01         858988242.0         878260951.0        1341305949.0        1687735708.0        1261279903.0        1615458589.0        2338701263.0        1119171942.0        2570676563.0         317077452.0        3194180850.0         618832124.0        2338701263.0        1119171942.0        2570676563.0         317077452.0        3194180850.0         618832124.0
Wiener process for Thermostat # 5        1 F T T  -7.2623034709222295E-02        3503246388.0        3640749438.0          80160185.0        4050541932.0        1809135917.0         826251710.0        1597262096.0        3906379055.0        3312112953.0        1016013135.0        4099474108.0         275305423.0        1597262096.0        3906379055.0        3312112953.0        1016013135.0        4099474108.0         275305423.0
Wiener process for Thermostat # 6        1 F T T   2.6094790259997280E+00        1648662560.0         298744963.0         276080774.0        3452610735.0        2129471280.0        4132861437.0          97147054.0        3131372450.0         829345164.0        3691032523.0        3006063034.0        4259826321.0          97147054.0        3131372450.0         829345164.0        3691032523.0        3006063034.0        4259826321.0
Wiener process for Thermostat # 7        1 F T T   1.3118545096244869E+00        4025695046.0        1027992126.0        3217973651.0        2155997853.0        1780084567.0        1907814450.0         796079799.0        2105258207.0         955365076.0        2923159030.0        4116632677.0        3067683584.0         796079799.0        2105258207.0         955365076.0        2923159030.0        4116632677.0        3067683584.0
Wiener process for Thermostat # 8        1 F T T   7.1524753302764935E-02        2631328646.0          66904958.0        3191287979.0        3452779318.0        2048731614.0        3759050068.0        3281794178.0        2616230133.0        1457051261.0        2762791137.0        2480527362.0        2282316169.0        3281794178.0        2616230133.0        1457051261.0        2762791137.0        2480527362.0        2282316169.0
Wiener process for Thermostat # 9        1 F T T  -1.0980465140389938E-01        1977246253.0        1903248984.0        3508262652.0        2466127224.0         300284070.0         767034957.0        3777646647.0        1837464056.0        4204654757.0         664239048.0        4190510072.0        2959195122.0        3777646647.0        1837464056.0        4204654757.0         664239048.0        4190510072.0        2959195122.0
Wiener process for Thermostat # 10       1 F T T   1.9081094228418396E+00         405211316.0        3215252316.0        3029076279.0        3899943421.0         886526099.0         586515832.0        4215590817.0        3862461878.0        1087200967.0        1544910132.0         936383720.0        1611370123.0        4215590817.0        3862461878.0        1087200967.0        1544910132.0         936383720.0        1611370123.0
Wiener process for Thermostat # 11       1 F T T  -5.3344054384789541E-01        3450000619.0        1059116059.0        3916567347.0         635813254.0        3901690603.0        3696418470.0        1683636369.0         362165168.0         814316280.0         869382050.0         980203903.0        2062101717.0        1683636369.0         362165168.0         814316280.0         869382050.0         980203903.0        2062101717.0
Wiener process for Thermostat # 12       1 F T T   8.9448207812820613E-01        1696219248.0        1783691089.0        1685873716.0        1285524479.0        2726140602.0        4269630803.0         272317999.0         166758548.0         310112982.0         201045826.0        1680231254.0         118290799.0         272317999.0         166758548.0         310112982.0         201045826.0        1680231254.0         118290799.0
Wiener process for Thermostat # 13       1 F T T  -1.0297203341400047E+00        4019568919.0        3484227797.0         947541978.0        4224885921.0        2127446270.0         502669027.0        2245755202.0        1652682525.0        2865544364.0         721509566.0         209733568.0         592362218.0        2245755202.0        1652682525.0        2865544364.0         721509566.0         209733568.0         592362218.0