 # Version information for this restart file 
 # current date 2023-12-04 12:43:55.833
 # current working dir /scratch/work/courses/CHEM-GA-2671-2023fa/students/sw4384/comp-lab-class-2023/Week12/Runs-Proton
 # Program compiled at                              Sat Dec 12 18:27:15 EST 2020
 # Program compiled on                                         cs001.nyu.cluster
 # Program compiled for                                                nyu-intel
 # Source code revision number                                       git:8c64c6e
 &GLOBAL
   PRINT_LEVEL  LOW
   PROJECT_NAME proton_aimd_1ns_every0.5fs
   RUN_TYPE  MD
   WALLTIME 21600
 &END GLOBAL
 &MOTION
   &GEO_OPT
     OPTIMIZER  BFGS
     MAX_ITER  100
     MAX_DR     3.0000000000000001E-03
     &BFGS
     &END BFGS
   &END GEO_OPT
   &MD
     ENSEMBLE  NVT
     STEPS  2000
     TIMESTEP     4.9999999999999994E-01
     STEP_START_VAL  1999
     TIME_START_VAL     9.9949999999998238E+02
     ECONS_START_VAL    -1.1025841879244936E+03
     TEMPERATURE     3.0000000000000000E+02
     &THERMOSTAT
       TYPE  GLE
       REGION  MASSIVE
       &GLE
         NDIM  5
         A_SCALE     1.0000000000000000E+00
         A_LIST     1.8595758612559999E+02    2.7263853498399998E-01    1.1526100454610001E+01   -3.6414578262600003E+01 \
             2.3173375816020001E+02
         A_LIST    -2.7809524712060002E-01    8.5951591808710006E-05    7.2189048017650004E-01   -1.9844539343859999E-01 \
             4.2409257583420001E-01
         A_LIST    -1.4825808131210000E+01   -7.2189048017650004E-01    1.3590902121280000E+00    5.1498896280349999E+00 \
            -9.9949268450990001E+00
         A_LIST    -1.0372189126880000E+01    1.9844539343859999E-01   -5.1498896280349999E+00    2.6661910891169999E+01 \
             1.1507715495310000E+01
         A_LIST     2.1801346360420001E+02   -4.2409257583420001E-01    9.9949268450990001E+00   -1.1507715495310000E+01 \
             3.0958394565589998E+02
         &THERMOSTAT_ENERGY
               3.0851036606541708E-03
              -8.8565650407592452E-04
              -4.8836745465506738E-03
               5.3306870089131295E-03
              -2.0370166401075380E-02
               3.4585330020178977E-03
              -4.8154434067315278E-03
               7.5850460616444819E-03
               4.2845044648289060E-03
               3.9133226667520966E-03
               1.3195851042466499E-02
              -2.7298539504539256E-03
              -8.3960307325747913E-03
               2.6400909525710727E-03
              -3.1889315930481526E-03
              -1.3716946768407701E-02
               6.4778930656378825E-03
              -4.0623140229659139E-03
              -3.0611322586967136E-03
              -1.4878929901668233E-03
               2.7613145133370508E-03
               6.7460201299914656E-03
              -1.2207670518495419E-02
              -4.6887082225949162E-03
              -2.0892837630898300E-03
              -1.1310780052618053E-03
              -1.7875066561102181E-03
              -3.9551297915231814E-04
               3.9953709232179685E-04
               3.1520360189448570E-03
              -2.7916224126530299E-03
              -1.3050063982191122E-03
               3.2365912060572048E-03
               2.6204719806321589E-03
              -7.1463267890581649E-03
               1.1798482220965805E-02
              -2.2990143293600642E-03
              -2.3349999617463565E-03
               2.2219371193744402E-03
               1.4791826542250737E-06
               3.8135706902429310E-03
              -1.3358789668002510E-02
               1.0627893589330004E-02
               7.5517592442014003E-03
              -9.7927602146536709E-04
               3.2457390222768098E-03
               1.1046398388958437E-02
              -2.3380140586514880E-03
              -5.6714697676917372E-04
              -2.4558601096357933E-03
               3.3982982406038768E-03
               4.7974956030662121E-03
              -1.9531102475134855E-03
               2.8810807619817145E-03
              -1.9927678263520839E-03
               3.1371473674070135E-03
              -7.1432343337073426E-04
               3.9237905668451220E-03
               7.7805982407879873E-03
              -2.9936923411735144E-03
              -4.9178231435532786E-03
              -2.5710578690423661E-03
               1.9088173932842623E-02
              -4.1313419439908596E-03
               1.4942004692332933E-03
               4.0829650650108587E-03
              -1.3273830180129060E-02
               1.6448913947929494E-02
               1.6952203509498102E-02
              -3.5303955701918616E-03
              -6.4043395207380744E-03
              -1.0950708570904756E-02
               2.7350463481252414E-03
               9.2137433872825934E-05
               1.6665668394180877E-03
              -1.4181907868267417E-02
               3.9792679880475464E-03
               1.4956804479195073E-02
               3.5860472797028442E-04
              -7.8769239624767850E-03
               2.6662799233234348E-03
              -7.4287965392394115E-03
               3.5699351922182285E-03
               1.6268984635509629E-03
               6.0953579659414527E-03
               6.6292074905336257E-03
               1.1830251714562891E-03
              -6.7461508903497655E-03
              -9.6791517259792279E-04
              -6.5852291142716075E-03
               3.5551356521536675E-03
              -7.1942796511478228E-03
              -2.2722657203444662E-03
               2.2398727627048589E-03
              -1.5562466671667203E-02
               8.1368063791402608E-03
               4.6172262233917447E-03
               1.0590707224777179E-03
               5.2291803411538334E-03
               6.3178026546216581E-03
              -8.0360744937966432E-03
              -7.9234484262026145E-03
              -4.7652874240543090E-03
              -1.0266227233787475E-02
               2.1040402884779951E-03
               1.3038498403412001E-02
               9.9457829408137479E-04
               1.3178364970197099E-03
               1.9612872158386667E-03
               2.9862016228648848E-04
               7.1237263714565829E-03
               1.0999291154661169E-02
              -9.3062791118625771E-03
               7.0366899794922376E-04
               4.1739441968255027E-03
               3.9186435797079850E-03
              -1.2602310374266085E-02
              -2.2025637982111624E-03
              -1.2083985806450794E-03
               3.2319544509848874E-04
               7.3934322829859404E-03
               2.9834565088436736E-03
               5.8325019483722040E-03
              -2.3604320354561909E-03
              -9.7820336034244622E-03
              -1.0687205976118639E-02
              -1.9946845247987037E-03
               3.5092934606236687E-03
               7.1517139017655759E-03
               1.2477470663844428E-02
              -1.2476132170515292E-02
               5.6383960859623444E-03
              -1.5901488404823350E-03
               2.8648241304739534E-04
               8.7768535027895681E-03
               2.8177366626213501E-03
              -3.1394869164514251E-03
              -5.1409702453618913E-03
              -2.1791595943123016E-03
               2.4644323094456990E-03
               5.2244763241515810E-03
               5.0098171435065241E-03
               1.2434530729145332E-02
              -1.0715219966951314E-02
               1.1957751647745126E-02
              -6.2747928878567547E-03
               1.3846974982877408E-03
               9.9171594674860274E-03
              -2.2384828414446525E-02
               1.5573683605695082E-02
              -1.6584828835699679E-02
               1.0789850104143687E-02
               4.4149298168543469E-03
               9.6547401861544063E-03
               7.2726500997583668E-03
              -5.1838610353840131E-03
               2.6514812718239278E-03
               3.5234119336855635E-03
              -1.0618728228142162E-02
               5.0813850204700335E-03
              -4.6009814798289930E-03
              -4.7660868216830620E-03
               2.1308103056142690E-03
               5.6379537949044680E-03
               7.7188623113801621E-03
               7.2376066200501674E-02
              -3.5427007525839602E-03
               3.1091674241094567E-03
               3.0449740254785803E-02
               1.5274717663062615E-02
               7.0268356347555974E-02
               1.3979919739760977E-02
               5.3921793344288739E-03
               3.4342384976800859E-02
               1.6611538062073167E-03
               2.9137382638232713E-03
               1.9711695303882980E-03
               4.8730134438218823E-04
              -1.8186267457767049E-02
               2.7376593571170986E-04
              -1.1603909851870832E-02
               4.1135737346146336E-03
               9.2220283477964064E-03
              -2.2479719031194734E-03
              -1.0199051398250539E-03
              -3.2709379210962655E-03
               1.2310592882466618E-02
               1.1189942725179898E-03
              -1.6234568086890246E-02
              -1.0148811959003553E-02
              -5.6049363093585965E-03
               1.9192089664628847E-02
               7.5025377183859012E-03
              -5.2892027843506675E-03
               2.1456817799532430E-03
               1.0554328567088983E-02
              -6.3429533660277438E-03
               4.1770464562737638E-03
              -6.6826072145178203E-03
              -1.1719528526694679E-02
               7.3238515093237292E-03
               4.2824914108123488E-03
               1.8721163961295476E-03
               5.8134159728780686E-03
              -1.7541382424687450E-02
              -2.3999756537366711E-03
               1.1500617633033889E-02
               4.3629864291422201E-03
              -3.4199848219845989E-03
               3.2893333650788506E-03
               5.2789317981183229E-03
               1.7960326508208659E-03
               2.4804749847152992E-03
               8.3545794570421359E-03
              -5.3164076050458428E-03
               4.5438160840848684E-03
              -1.3832199522900891E-02
               7.0780600387203071E-03
               6.0714584193757989E-03
               1.8430730867955798E-03
               7.4661112479170366E-04
              -1.6614843968669780E-03
              -1.0181659737593532E-02
              -7.6456402374011536E-04
               1.8043597354270729E-02
              -6.9642303298083179E-03
               2.3956516562701632E-03
               4.4343733989577836E-03
              -2.8578135208718620E-03
              -1.4518631271027431E-03
              -1.5970074794123146E-03
               5.9311702060406623E-03
               1.0663939287665814E-02
              -3.3139559876805202E-03
              -3.1749709792974396E-03
              -2.5586527356203964E-04
               1.9053176206003666E-03
              -8.6087761544061049E-04
              -1.5421376969618043E-03
              -1.4738846211291596E-03
               7.8018927945136948E-03
               1.1466570359671888E-02
               5.1563515326263670E-04
               1.6485283512522560E-03
              -3.6957439990913023E-03
               2.5105229388886047E-03
              -1.0440108081529145E-03
              -1.5087641504220183E-03
              -3.2148240935544296E-03
              -8.5302447213661987E-03
               1.1737456336029231E-02
              -5.6627460455601223E-03
              -2.1269915071803441E-03
              -1.0882450085268624E-02
               6.6916551354478798E-03
              -3.6804541179001702E-03
               5.9876472848173251E-04
               2.2519761736110797E-03
              -1.3946705644040972E-03
               5.6752594474108811E-03
               5.7366682147238415E-03
               6.1912491858596890E-03
               1.3472601495534833E-02
              -4.9333107979080398E-03
              -2.1366132498917736E-04
               3.5907402011344188E-03
               5.2908050774394619E-03
              -1.8308995306660089E-03
              -4.3384899088081703E-03
               1.3359234932338393E-02
              -1.6935024996360137E-02
              -5.9086931266307471E-03
               1.2037638548438019E-02
               7.0334724988612091E-03
               3.3376291732928041E-03
               6.8655788033634567E-04
              -1.0574162529570243E-02
               6.8986616563920002E-03
               4.8175631392984820E-03
               1.8716622377232218E-05
              -2.5238491393523312E-03
              -8.0192779659086378E-03
               6.0189662530477321E-05
              -6.9303310217971783E-03
               4.7867214531937463E-03
               1.0561453316304596E-02
              -4.3731985060026608E-03
               6.4484618440440085E-04
              -1.1688790507588987E-02
              -2.7751020813101580E-03
               1.5025863254309961E-02
               1.6031611619840298E-03
              -2.5828751996788686E-03
              -8.3569494686195362E-03
               8.3967270441601752E-03
               9.5343887112943355E-03
              -1.3994080112601393E-02
               1.7204709935309169E-02
               1.0892296656030549E-02
              -1.4114942292706375E-02
              -4.9645912765332811E-04
              -3.1550260850169709E-03
               6.8422904119993999E-03
               1.7798012800142446E-03
              -3.0152340966555203E-03
              -7.9421007691174786E-03
               1.5111162144453780E-03
              -1.2667235615695395E-03
               1.9509386642276849E-03
               3.0546768356450021E-03
              -8.0326956519545588E-04
              -3.9823959252918454E-03
               4.0854125559898150E-03
              -4.1734146705044162E-03
               2.3880336705261085E-03
               5.5562088754255237E-03
              -2.3770482207993928E-03
              -3.6809775798945926E-03
              -1.4621318831160350E-02
              -1.1303236129553876E-02
              -2.0062531771028328E-03
               6.1850660791810189E-03
               4.8598399320591559E-03
               2.8047859874928433E-03
              -6.7888983653076633E-03
               7.8453782609820971E-03
               4.9218560361337571E-03
               5.6705045278985285E-03
              -2.7377690265980408E-03
               5.3499563215218954E-03
              -1.2327994445723611E-02
               7.3431520400116159E-03
               2.4078213775582465E-03
              -1.4405321158705495E-04
               3.6676767528942907E-03
              -1.9493366865678424E-03
               8.5238837497863089E-03
               4.6241224541152134E-04
               6.9533513144708599E-03
              -2.3293780131301550E-03
              -9.8373408466308349E-03
              -1.9764998388230996E-03
               7.1823215211045711E-03
               3.3408424676775812E-03
               2.2112359779512133E-03
               4.0603962245186632E-03
               8.7115682324260726E-03
              -1.2969729206260267E-02
               1.4293594128964329E-02
              -4.2215749033899918E-03
              -3.9954907057090355E-03
               2.5322145686709173E-03
              -9.9702154498692436E-03
               3.5244068083070245E-03
              -2.4555298996236327E-03
              -4.7569469772266960E-03
               2.8247141851974709E-03
               9.9441093037839221E-04
              -1.2592052956377713E-02
               2.2965209905576453E-03
               5.3899186520638079E-03
              -9.4841677281550709E-03
               1.8007818100955451E-02
              -6.9326969932490138E-03
              -1.5429574002394177E-02
               3.0359923142366393E-03
               9.0468049261771284E-03
               8.3144948389680135E-03
              -1.2436529462932265E-02
              -5.8574610083239340E-03
              -3.4027562388380733E-03
               9.4708105899838687E-03
               1.0717469762858574E-03
              -4.2577245719927961E-03
              -2.5414335669389759E-03
               1.7720003031316605E-03
              -5.9778197789716707E-03
              -5.7776617385428128E-03
               7.9013458605198539E-03
               3.8483015954715164E-03
              -1.1402186442110555E-03
               7.3768495122862564E-03
              -3.5803405342245895E-03
              -1.0074763726157221E-03
              -1.8116737037366413E-02
              -1.7935171008916740E-03
               1.7184873631170257E-03
              -2.2788192320292540E-03
               8.3868687909924924E-03
               2.0661090463045288E-03
              -1.0945347556577879E-02
               5.9908839502739522E-03
               9.9114218677728481E-04
               3.2322798100207625E-03
               7.1036861131217859E-03
               5.3248880902786273E-03
               5.5892485004263462E-04
              -7.4463028010010018E-03
               1.6499377416066493E-03
               2.1315793763667656E-03
              -3.0943731091031415E-03
               2.7351243614845903E-03
              -4.7856233990611350E-03
              -8.5628078200242451E-03
               7.6025838571205945E-03
              -3.8742586632105622E-03
               9.0803248153728758E-03
              -9.1167723047504037E-04
              -1.7789008161612778E-03
               6.9357398043955036E-04
               3.2483608054506737E-03
              -5.2279727583862852E-03
               3.7663716848380375E-03
              -4.8956453655747982E-04
               2.3556410634092148E-03
               3.5762881890703006E-03
              -7.6794152876272070E-03
              -5.2218503561866176E-03
              -7.3518282222310939E-04
               3.9475538478262670E-03
               3.4724036929765409E-03
              -3.1079459073153075E-03
               1.0334146377735469E-03
              -6.5374453968375737E-04
               1.4732203728527420E-02
              -1.5428873964512179E-02
               2.4348195558065726E-03
              -4.2608088064478499E-03
              -8.1787803907324569E-04
              -6.8701408526417485E-04
              -1.2683884093240902E-02
              -2.8961933482506072E-03
              -1.6333592701223153E-02
               1.5543148515262596E-02
               1.7957149950987326E-02
               4.8444299590630849E-03
              -5.4198282362430484E-03
              -3.8068713611284327E-04
              -1.0281628847957438E-02
              -2.2035475818673622E-03
               1.7762723046860864E-02
              -1.1936939882673508E-03
              -6.5653601081193452E-03
               1.6593714637055289E-02
               3.3960973892269053E-03
               8.8213579558629619E-03
              -6.3605321107104854E-03
               8.5162158774054128E-03
              -2.2951743308498702E-03
              -5.8560485498099224E-03
              -1.6459371465636140E-03
              -9.2480453525456540E-03
               5.4777052295562796E-03
              -2.2024069241768831E-03
              -3.6562520967733545E-03
              -3.1223965105623935E-03
              -2.3050623500477908E-02
              -1.8515516281425570E-03
              -8.3276187725005776E-03
              -1.0148581824301688E-03
               1.2991879870423901E-02
               1.4899332741521920E-02
              -2.7059886030163802E-06
               6.0977987112143285E-03
              -1.3565006652867030E-03
               8.3454094806416860E-03
              -1.1976302321832820E-02
              -1.4136146305818342E-03
               1.0130336921367434E-02
              -1.2474131913810407E-02
               3.7170387177104178E-03
              -1.0090014871958145E-03
               1.8219862228475411E-04
              -9.9610048753763069E-04
              -1.4247508597503868E-02
               5.1354647666031665E-03
               1.6602420514793973E-03
               1.0915901145291621E-02
              -8.4910269367223304E-03
              -6.9749546242714915E-03
              -4.0000676981589642E-03
               1.0997760562023416E-03
               8.9217020287761569E-03
               2.4646344914094850E-03
              -6.0219681881283436E-03
              -5.7369448045227088E-04
               2.9635704041884930E-03
              -1.2626043357297291E-02
               1.4950744968099483E-02
              -2.4901857708903175E-03
               7.7339907332160300E-03
               5.1270341653625222E-03
               1.0096677493468502E-02
              -1.0748553316660248E-02
              -3.9993747320596405E-04
              -8.7121775208764164E-03
               5.2859963057463218E-03
               5.2762181003993000E-03
              -5.6666888141612725E-04
               5.8211953257009414E-03
               1.4729338626686685E-04
               4.3427952397638598E-03
              -1.3712470978114445E-02
               1.9525665479695364E-02
               1.1027894292884786E-02
              -1.2429146315641947E-02
              -1.7968740875770187E-03
               2.5423517010058579E-03
               4.8950983545721066E-03
              -1.8902862834978766E-03
              -4.1104574147166097E-03
               1.0682010751475204E-02
              -3.4474761287490684E-03
              -1.4395764671511402E-02
               1.1407713715442714E-02
              -1.9842486358586226E-02
               1.2714871623102602E-03
               3.5467475558567008E-03
              -1.8773378279473397E-05
               9.5103440789326109E-03
              -1.7785295500926085E-02
               5.2423375123212511E-03
               4.6136427156282392E-03
               5.4227119940354496E-03
              -1.0411505120409533E-04
               5.4435885114850844E-03
              -9.2005649136884604E-04
              -5.0579748896987936E-03
               2.3651501256368715E-03
               5.1037005829957384E-04
               1.7572545595378013E-02
               5.9671326998340555E-04
              -4.3967852246449514E-03
              -3.2946611216769861E-03
               4.4818722369522951E-03
               2.6496274399665544E-03
               5.1655266685462055E-04
              -7.9213829725670992E-03
               1.0517995151584473E-03
              -2.9701923760339834E-03
               1.0397294831180125E-03
               2.6160867379576964E-03
              -8.5566297923878130E-03
              -3.2941244350512657E-03
               2.2928062857237794E-03
              -4.4144550810887159E-03
               4.5650347796802656E-03
              -6.9274524927907387E-04
               5.6595978861952115E-03
               5.5821010752996805E-03
               2.8865603623148190E-03
              -1.4995273212241970E-02
              -4.5550380125523489E-03
               2.0278994034017899E-03
               4.3881938702341455E-03
              -2.4419782930111236E-03
              -1.1926247044287016E-03
               5.8265077954513505E-03
               4.2815558502691184E-03
               1.6659911704496532E-03
              -1.3251605490505144E-03
               2.1470461063884199E-03
               1.2646831518233416E-03
               6.9970795391673937E-03
              -3.6741874168592144E-03
              -3.6180998422596089E-03
               3.1468074319970559E-03
               1.2240668394370931E-02
               3.3536503573757524E-03
              -5.0021394172067189E-03
              -7.6507679138611969E-03
              -2.4796789403194520E-03
              -4.6370302728730491E-03
              -9.5800389904871341E-03
               2.5062868243156443E-03
               8.6764490615554250E-03
               1.6083924795476465E-02
               4.9039352487256242E-03
              -1.1005208935741011E-02
         &END THERMOSTAT_ENERGY
         &RNG_INIT
Wiener process for Thermostat # 1        1 F T T  -1.3877964172148927E+00        3819968671.0        1923139303.0        2505174482.0        1129753110.0        1102497896.0        2318485114.0             12345.0             12345.0             12345.0             12345.0             12345.0             12345.0             12345.0             12345.0             12345.0             12345.0             12345.0             12345.0
Wiener process for Thermostat # 2        1 F T T   5.9690975612399577E-01        1863048650.0        1167059563.0        4156553466.0        2659491592.0        2500563110.0        2967422577.0        3692455944.0        1366884236.0        2968912127.0         335948734.0        4161675175.0         475798818.0        3692455944.0        1366884236.0        2968912127.0         335948734.0        4161675175.0         475798818.0
Wiener process for Thermostat # 3        1 F T T  -1.9577134425325560E-01        2029679022.0        1992813296.0        1475024831.0        3744841000.0        4231717232.0        1872789393.0        1015873554.0        1310354410.0        2249465273.0         994084013.0        2912484720.0        3876682925.0        1015873554.0        1310354410.0        2249465273.0         994084013.0        2912484720.0        3876682925.0
Wiener process for Thermostat # 4        1 F T T  -5.5423907268054418E-01         972191078.0        3239779000.0        2283144792.0        4029872124.0        2868550739.0         388907277.0        2338701263.0        1119171942.0        2570676563.0         317077452.0        3194180850.0         618832124.0        2338701263.0        1119171942.0        2570676563.0         317077452.0        3194180850.0         618832124.0
Wiener process for Thermostat # 5        1 F T T  -3.6874052824979625E-01         246061856.0        2033992607.0        4208640487.0        3425480013.0        1713937449.0        3033523858.0        1597262096.0        3906379055.0        3312112953.0        1016013135.0        4099474108.0         275305423.0        1597262096.0        3906379055.0        3312112953.0        1016013135.0        4099474108.0         275305423.0
Wiener process for Thermostat # 6        1 F T T   5.7875332706651861E-01        4268450248.0        1240555256.0        2123119467.0         299173953.0        2368881629.0        2698044585.0          97147054.0        3131372450.0         829345164.0        3691032523.0        3006063034.0        4259826321.0          97147054.0        3131372450.0         829345164.0        3691032523.0        3006063034.0        4259826321.0
Wiener process for Thermostat # 7        1 F T T  -1.8983145396195047E+00        4260312323.0         705196258.0         937296972.0        1373994383.0        3179698350.0        3757299263.0         796079799.0        2105258207.0         955365076.0        2923159030.0        4116632677.0        3067683584.0         796079799.0        2105258207.0         955365076.0        2923159030.0        4116632677.0        3067683584.0
Wiener process for Thermostat # 8        1 F T T  -3.3116685260855833E-01        2351531572.0        3477839446.0        1021048571.0        1975906828.0        1893564842.0         777663015.0        3281794178.0        2616230133.0        1457051261.0        2762791137.0        2480527362.0        2282316169.0        3281794178.0        2616230133.0        1457051261.0        2762791137.0        2480527362.0        2282316169.0
Wiener process for Thermostat # 9        1 F T T   1.4386427466100791E+00        3265425123.0        2999969280.0        3048908474.0        1047403656.0         134736569.0        4209884843.0        3777646647.0        1837464056.0        4204654757.0         664239048.0        4190510072.0        2959195122.0        3777646647.0        1837464056.0        4204654757.0         664239048.0        4190510072.0        2959195122.0
Wiener process for Thermostat # 10       1 F T T  -2.3947144259907721E-01        2825100143.0        2025717467.0        3827127036.0        1422979577.0        1026966836.0        1481957392.0        4215590817.0        3862461878.0        1087200967.0        1544910132.0         936383720.0        1611370123.0        4215590817.0        3862461878.0        1087200967.0        1544910132.0         936383720.0        1611370123.0
Wiener process for Thermostat # 11       1 F T T   2.8146058156813852E-01        3161233422.0        2404453347.0        1673723662.0         906337025.0          73303549.0        1016746719.0        1683636369.0         362165168.0         814316280.0         869382050.0         980203903.0        2062101717.0        1683636369.0         362165168.0         814316280.0         869382050.0         980203903.0        2062101717.0
Wiener process for Thermostat # 12       1 F T T  -6.6211933450441895E-01         208754144.0        1983222026.0        1378772639.0         460703296.0         651350573.0        3898252829.0         272317999.0         166758548.0         310112982.0         201045826.0        1680231254.0         118290799.0         272317999.0         166758548.0         310112982.0         201045826.0        1680231254.0         118290799.0
Wiener process for Thermostat # 13       1 F T T   2.2418582236869027E-02         545702192.0         878923556.0         464381839.0        1267067492.0        3004786620.0        2258194530.0        2245755202.0        1652682525.0        2865544364.0         721509566.0         209733568.0         592362218.0        2245755202.0        1652682525.0        2865544364.0         721509566.0         209733568.0         592362218.0