 # Version information for this restart file 
 # current date 2023-12-04 12:43:41.427
 # current working dir /scratch/work/courses/CHEM-GA-2671-2023fa/students/sw4384/comp-lab-class-2023/Week12/Runs-Proton
 # Program compiled at                              Sat Dec 12 18:27:15 EST 2020
 # Program compiled on                                         cs001.nyu.cluster
 # Program compiled for                                                nyu-intel
 # Source code revision number                                       git:8c64c6e
 &GLOBAL
   PRINT_LEVEL  LOW
   PROJECT_NAME proton_aimd_1ns_every0.5fs
   RUN_TYPE  MD
   WALLTIME 21600
 &END GLOBAL
 &MOTION
   &GEO_OPT
     OPTIMIZER  BFGS
     MAX_ITER  100
     MAX_DR     3.0000000000000001E-03
     &BFGS
     &END BFGS
   &END GEO_OPT
   &MD
     ENSEMBLE  NVT
     STEPS  2000
     TIMESTEP     4.9999999999999994E-01
     STEP_START_VAL  1997
     TIME_START_VAL     9.9849999999998249E+02
     ECONS_START_VAL    -1.1025841879244936E+03
     TEMPERATURE     3.0000000000000000E+02
     &THERMOSTAT
       TYPE  GLE
       REGION  MASSIVE
       &GLE
         NDIM  5
         A_SCALE     1.0000000000000000E+00
         A_LIST     1.8595758612559999E+02    2.7263853498399998E-01    1.1526100454610001E+01   -3.6414578262600003E+01 \
             2.3173375816020001E+02
         A_LIST    -2.7809524712060002E-01    8.5951591808710006E-05    7.2189048017650004E-01   -1.9844539343859999E-01 \
             4.2409257583420001E-01
         A_LIST    -1.4825808131210000E+01   -7.2189048017650004E-01    1.3590902121280000E+00    5.1498896280349999E+00 \
            -9.9949268450990001E+00
         A_LIST    -1.0372189126880000E+01    1.9844539343859999E-01   -5.1498896280349999E+00    2.6661910891169999E+01 \
             1.1507715495310000E+01
         A_LIST     2.1801346360420001E+02   -4.2409257583420001E-01    9.9949268450990001E+00   -1.1507715495310000E+01 \
             3.0958394565589998E+02
         &THERMOSTAT_ENERGY
               3.1930757602277393E-03
              -1.0947439670826622E-03
              -4.8854256104793690E-03
               5.3560811163895642E-03
              -2.0691136384438973E-02
               3.6395787545496546E-03
              -4.8754955882672297E-03
               7.6737344987714892E-03
               4.4558172188279488E-03
               3.8311960118671586E-03
               1.3163273558558055E-02
              -3.0626874823788028E-03
              -7.5161885192006174E-03
               2.6015137131435609E-03
              -3.2600171802810289E-03
              -1.4409103818726657E-02
               6.6471462147722430E-03
              -4.9545517226344165E-03
              -2.9690371394902951E-03
              -1.8183077130420732E-03
               2.0957122710392028E-03
               6.9858856538605966E-03
              -1.2008006093818234E-02
              -5.1299031541437098E-03
              -1.8710771078623780E-03
              -7.4630991688298556E-04
              -1.5710667538204844E-03
              -3.9679179917101123E-04
               7.2692314822105043E-04
               3.1662844091353481E-03
              -2.6351294960888943E-03
              -1.0304375684870542E-03
               3.2700147467892792E-03
               2.9802864192471140E-03
              -7.2304591085983871E-03
               1.2998902753338116E-02
              -2.3532440594003987E-03
              -2.1740067656403892E-03
               2.3671295306482761E-03
              -2.0104704289224823E-05
               3.2685880166243753E-03
              -1.3714185266609405E-02
               1.2165508525660939E-02
               7.5598428229861356E-03
              -1.0569906884145973E-03
               4.7469913392424960E-03
               1.1205042334632025E-02
              -1.5663733760764211E-03
              -9.9999476698323488E-04
              -3.2339901384650944E-03
               2.5223445224457582E-03
               4.9721397810699825E-03
              -1.9429873908555311E-03
               2.8139704168903094E-03
              -1.9528143101804189E-03
               3.1805880590107345E-03
              -6.3892407134845278E-04
               3.9469014906628498E-03
               7.6221749203861456E-03
              -3.2080817333137142E-03
              -5.7265310011520212E-03
              -2.3674508148863269E-03
               1.8765537861715378E-02
              -4.1122984133854616E-03
               2.5905085134229292E-03
               4.6882148800204103E-03
              -1.2461027844718475E-02
               1.6164981337866029E-02
               1.6618055830349872E-02
              -3.7183521746626674E-03
              -6.5414430077631869E-03
              -1.0821488231154067E-02
               2.6600530496035226E-03
               3.7747288478804839E-04
               1.6055868364331718E-03
              -1.4984625473629642E-02
               3.3059350488825086E-03
               1.5111211924754521E-02
               5.2451885432672684E-04
              -7.9689084515373963E-03
               2.5085017054590447E-03
              -7.2242021692185965E-03
               3.2063654352216175E-03
               1.3742088233031852E-03
               5.8704176332772754E-03
               6.5426600835412812E-03
               1.0989481126511234E-03
              -7.9765803940841651E-03
              -7.7840655623936526E-04
              -6.0989454152600448E-03
               3.3084278553367689E-03
              -7.0245894674731994E-03
              -2.3330681391819270E-03
               2.4251134652676512E-03
              -1.5779718423463165E-02
               8.3471792210701688E-03
               4.0436540532128350E-03
               1.4765682564424913E-03
               5.2234277680754341E-03
               6.3042166792710488E-03
              -7.7396158554487856E-03
              -7.6641703042409411E-03
              -4.5951661390094788E-03
              -1.0786448397201926E-02
               1.7492157231599041E-03
               1.2792840975587225E-02
               8.5422383067243620E-04
               1.3039428879808416E-03
               1.9273673229027286E-03
               2.6017178127085813E-04
               5.8053398454762529E-03
               1.1706629699024269E-02
              -9.4424946623521151E-03
               1.4742507822226695E-03
               4.3909756997912641E-03
               3.9112602704341410E-03
              -1.2895074258635257E-02
              -2.2376083051776521E-03
              -1.3483931252782659E-03
               6.3880644706999421E-04
               6.9993597505492158E-03
               3.3309361424366957E-03
               5.9494665268708200E-03
              -2.3839203730800494E-03
              -9.5630180227855733E-03
              -1.0506228056005774E-02
              -1.8663745035854054E-03
               3.2090786867363659E-03
               7.3257348578642089E-03
               1.2425201191914764E-02
              -1.2274388807615938E-02
               5.7726827365925173E-03
              -1.3097140865663813E-03
               2.0755860154806662E-05
               9.1928282356152045E-03
               2.2989044917371237E-03
              -3.8336345794374250E-03
              -6.5872815197472231E-03
              -2.2595579978307808E-03
               2.1345798030906618E-03
               5.2333169138907626E-03
               4.5341720245884549E-03
               1.2958357051966438E-02
              -1.0492176245440403E-02
               1.2213836536936034E-02
              -6.1538726034048238E-03
               1.1785423884284562E-03
               9.8794391007844436E-03
              -2.1911908860937964E-02
               1.5252440541141873E-02
              -1.6100966486797767E-02
               1.0780020761864923E-02
               4.2078205231497641E-03
               9.2482880208101977E-03
               7.2581027329921182E-03
              -5.9556619827949853E-03
               1.2122059132463397E-03
               2.5739401266053922E-03
              -1.1059864156269712E-02
               4.6660011608778322E-03
              -4.3912866576520009E-03
              -4.7675942439275691E-03
               2.5479252492688433E-03
               4.8132683545805480E-03
               7.5711637293451838E-03
               7.0280673179426170E-02
              -4.1625356007207771E-03
               3.4265985710862550E-03
               3.0059463895442323E-02
               1.5348930011498866E-02
               6.9619648819079213E-02
               1.3687526143106209E-02
               5.9592170337869985E-03
               3.4022242358482294E-02
               1.7071043664889066E-03
               2.8715707129793886E-03
               1.4064991660718660E-03
              -1.6719036189989113E-04
              -1.8114887412025975E-02
               7.6134670101870769E-04
              -1.1274054260081651E-02
               4.7627778043948261E-03
               9.0698326880916356E-03
              -1.8202190352044666E-03
              -7.6491874055019632E-04
              -3.3991763165286681E-03
               1.2951110573919162E-02
               2.0449642933242362E-03
              -1.5459387214993004E-02
              -1.0353904428881984E-02
              -5.8623557909042992E-03
               1.9232151459619796E-02
               6.5549609931785761E-03
              -5.2882321673579178E-03
               1.6494125943969586E-03
               1.0479924833192562E-02
              -6.5150631135169421E-03
               4.4119892279666393E-03
              -6.3935829414559107E-03
              -1.2369242401095501E-02
               6.5868962962045020E-03
               4.0484964272482458E-03
               2.0804984512937112E-03
               5.8016901236547808E-03
              -1.8875860010440667E-02
              -2.1261092160405962E-03
               1.1493108363025853E-02
               4.3147749645234268E-03
              -2.8765294829001999E-03
               2.8592618230426337E-03
               5.2183304118898575E-03
               1.6621154410860718E-03
               2.4420012605510248E-03
               8.5765701450651911E-03
              -5.2829215490337320E-03
               4.4165619893836820E-03
              -1.3579376716484660E-02
               7.4525271698995168E-03
               6.3463806821172572E-03
               1.8889753615170066E-03
               5.2550266506309797E-04
              -2.1834915819738854E-03
              -1.2044062473521881E-02
              -4.5052691072763212E-04
               1.7491514376173554E-02
              -7.0452356818557849E-03
               1.9312373021177179E-03
               4.5935066650842227E-03
              -2.9088018913799563E-03
              -1.6105743956995385E-03
              -1.5181719660573396E-03
               6.1671898889424674E-03
               1.0832232453602630E-02
              -3.1550035788476126E-03
              -3.5245103782836121E-03
              -1.9026591897663468E-04
               1.2623590601799296E-03
              -8.5596703473891347E-04
              -1.4989607347968199E-03
              -1.3215200624781466E-03
               7.4916487299554468E-03
               1.1393948259099625E-02
               4.1785660418480503E-04
               1.6933726536540626E-03
              -5.7775759659516712E-03
               1.9227710636389138E-03
              -9.0156769985250910E-04
              -1.4455518685982216E-03
              -3.2734953883516524E-03
              -8.8338822241260783E-03
               1.1692185161531764E-02
              -5.5355593774722807E-03
              -2.0004254624181885E-03
              -1.0643950960792656E-02
               5.7081707002123155E-03
              -3.6557815486021406E-03
               7.6374541433993218E-04
               2.2468042130805556E-03
              -1.6604277810073841E-03
               6.2798226899995835E-03
               5.5553848287554219E-03
               5.9161410236351509E-03
               1.3119110038755905E-02
              -4.4337606950418827E-03
               1.0347163294087065E-03
               3.4697956350612283E-03
               5.0537229336804195E-03
              -1.1671576295725432E-03
              -3.9864308076149558E-03
               1.3537831300814233E-02
              -1.6455747464846997E-02
              -5.6170619053572497E-03
               1.1657490863169860E-02
               6.7240122944865659E-03
               2.2030583783736518E-03
               7.3432168243105168E-04
              -1.0727107365376819E-02
               6.9506438833590286E-03
               4.6485575437274175E-03
               3.8624839700462585E-04
              -1.9407811539788615E-03
              -7.5935692352269730E-03
               7.3766159604708666E-05
              -7.2850331326420933E-03
               4.9706548684156056E-03
               1.0163111378594679E-02
              -2.9620978376101630E-03
               1.6606514829267899E-04
              -1.1669852405828735E-02
              -2.7673900803059956E-03
               1.4006940276523805E-02
               1.5516034455641554E-03
              -2.5607036313215381E-03
              -9.0443564002498957E-03
               8.2629277413783040E-03
               9.5483184715442256E-03
              -1.4071871190540562E-02
               1.7182091280278085E-02
               1.0944962069286744E-02
              -1.4597045085230860E-02
              -6.2089442835000053E-04
              -3.3680012687738537E-03
               6.7906620546330813E-03
               9.3188035057988636E-04
              -3.0778013975471660E-03
              -7.8283624741626520E-03
               9.4980663892477537E-04
              -1.3587515796898927E-03
               2.0806091353872238E-03
               2.9247782471979998E-03
              -5.8447618602621007E-04
              -3.9970921303664796E-03
               3.4290087570247683E-03
              -4.0822707948625341E-03
               2.0534402727781613E-03
               5.1856143831625519E-03
              -2.4531813341796336E-03
              -3.0351645523012602E-03
              -1.4322894558000529E-02
              -1.0878858836852415E-02
              -2.0402660734472576E-03
               7.2026041339035528E-03
               5.2634594429318811E-03
               3.0086837980830908E-03
              -6.6542833407734195E-03
               8.3710655476497281E-03
               5.7095520106625348E-03
               5.7623412701601614E-03
              -2.8869118542002542E-03
               6.0225471106836780E-03
              -1.4895782216842627E-02
               6.4451377089201345E-03
               2.4487045855942535E-03
               2.0979247296900249E-04
               3.6190820782866146E-03
              -1.8396734543953664E-03
               8.2308370137909211E-03
               4.1141146622153272E-04
               6.8583532642033642E-03
              -2.0264051614500658E-03
              -9.9044323696638650E-03
              -1.5833549090275821E-03
               7.6944053641900111E-03
               3.1053848552855339E-03
               2.3002883871080129E-03
               3.9078251561199184E-03
               8.4923931422715860E-03
              -1.2958736249621397E-02
               1.3617524221629882E-02
              -4.4088081039799906E-03
              -3.8201306752511945E-03
               2.5439784136520554E-03
              -9.8328815616561382E-03
               1.8026912584975774E-03
              -2.5409698796057837E-03
              -4.1904097491256192E-03
               3.3518121650994541E-03
               1.0165053931328713E-03
              -1.2483972656758709E-02
               1.7320052268189636E-03
               5.4917617368380207E-03
              -1.0169188335743849E-02
               1.7844796683929975E-02
              -7.0531234349293231E-03
              -1.5446066280008039E-02
               3.2984013536828979E-03
               9.0306019330885553E-03
               7.9939456443836633E-03
              -1.2620022127619987E-02
              -5.8919482197390396E-03
              -3.3480232466305210E-03
               8.7745383355581352E-03
               8.2624699727125743E-04
              -3.2145282846147323E-03
              -2.9790443362231059E-03
               6.3857530557661908E-04
              -6.0274617867391482E-03
              -5.8616464909041731E-03
               7.7191524819890060E-03
               3.7999686375568792E-03
              -1.5904608955554865E-03
               7.4515460886572195E-03
              -2.9443349303348446E-03
              -1.1506743884278981E-03
              -1.7701493788173157E-02
              -2.5523018667060393E-03
               1.7680147251921861E-03
              -3.0844104734711222E-03
               8.5008591022602345E-03
               2.0890103199898142E-03
              -1.1007847134642449E-02
               5.9454108575747204E-03
               1.1714161233563575E-03
               3.1476572873181778E-03
               6.7790751341934167E-03
               5.3898474564115281E-03
               7.0472976822742468E-04
              -7.4891916248436326E-03
               2.0896707243322609E-03
               2.1097788024725317E-03
              -2.9135166567906970E-03
               2.5237897092633948E-03
              -4.7665030936267679E-03
              -8.5372752277251985E-03
               7.7956257798079166E-03
              -3.9164591386799622E-03
               9.2592396305546196E-03
              -7.0814598998387621E-04
              -1.7401032713337083E-03
               6.3671194259796104E-04
               3.1158553047885458E-03
              -5.1871307758462274E-03
               3.9291298865290272E-03
              -5.4031582036728136E-04
               1.9889235904718364E-03
               3.1213202152160259E-03
              -7.1238569322180159E-03
              -4.8513413264189868E-03
              -7.1204912825015775E-04
               3.8481055661170843E-03
               3.6515443300100801E-03
              -2.7332871380853093E-03
               8.8176668614633764E-04
              -1.0153064566418492E-03
               1.3427397123379904E-02
              -1.5243942928455901E-02
               2.8570966692898674E-03
              -4.0426290402356896E-03
               1.1955627397746676E-03
              -1.0936639077111603E-03
              -1.2819384171457298E-02
              -2.9032858311732637E-03
              -1.6237863219340898E-02
               1.5642437402195356E-02
               1.8300000230368468E-02
               3.5007491927692980E-03
              -5.6661368430558686E-03
              -8.2809345604903102E-04
              -1.0376546560233003E-02
              -2.2012602828917283E-03
               1.8456517517838215E-02
              -6.5928172614529868E-04
              -6.5330864049398625E-03
               1.4994259004446467E-02
               3.3906334903988674E-03
               8.9194613874591395E-03
              -7.1352891492050680E-03
               8.4807618764644443E-03
              -1.9738895396487410E-03
              -5.8839422619491478E-03
              -9.6362526431979334E-04
              -9.6806214660937508E-03
               5.5328888943354639E-03
              -2.6831718517156388E-03
              -3.0552641401519532E-03
              -3.1364797158724045E-03
              -2.3090424125186040E-02
              -2.1258394456212652E-03
              -8.2409907874272156E-03
              -1.4938373940534249E-03
               1.2772360940785637E-02
               1.4882202839235206E-02
               1.1040774346096117E-04
               5.7364377825390297E-03
              -9.5118728898870573E-04
               7.6275786561049910E-03
              -1.1826601920143063E-02
              -1.9552334403613180E-03
               1.0102925033225933E-02
              -1.2505076511563856E-02
               3.3839469206120277E-03
              -1.1083492242551407E-03
               4.1471380383131004E-04
              -1.4081460798515146E-03
              -1.4791014088828545E-02
               3.8748168858570783E-03
               1.7244255900911542E-03
               1.0959262680234358E-02
              -8.7372806454987274E-03
              -7.6454045116685163E-03
              -4.2653405134688068E-03
               7.5229973957318807E-04
               9.8883330340924242E-03
               2.6625642572945724E-03
              -4.7152955030577912E-03
              -6.3989283906379607E-04
               2.7391974975241647E-03
              -1.2845171343792684E-02
               1.5445934946024541E-02
              -2.4894618476623883E-03
               7.8288020445301861E-03
               5.2360571506528068E-03
               1.0108679120498398E-02
              -1.0809847338542211E-02
              -4.5777026029850007E-04
              -8.9132611675709194E-03
               4.6793591716771596E-03
               4.6146783468771239E-03
              -8.7925113101107130E-04
               5.9520754375867180E-03
              -2.2277135660285297E-03
               4.3795121914681229E-03
              -1.4380549406780784E-02
               1.9075866044144924E-02
               1.1112920087779662E-02
              -1.3025206922290554E-02
              -2.1179656288110829E-03
               2.5197177574739753E-03
               4.8263272902406874E-03
              -1.6053754547776761E-03
              -4.3330811471348173E-03
               9.4916242033432959E-03
              -3.3872673851244334E-03
              -1.4407404845554099E-02
               1.1485900536219815E-02
              -1.9665675156212394E-02
               1.1403912465491983E-03
               3.5279785305114180E-03
               1.5806468445207237E-05
               9.4017583508813358E-03
              -1.8026872211479042E-02
               5.0132095136686781E-03
               4.4138109634120964E-03
               5.3811244044355000E-03
               4.8999462182502474E-04
               5.5070814652940989E-03
              -1.7086220662408224E-03
              -3.4841384783370647E-03
               1.7315614684657520E-03
               1.5382602066058232E-05
               1.7345503681329456E-02
               6.3840289078657259E-04
              -4.3920774517967383E-03
              -3.3827343310360767E-03
               4.5150774886014008E-03
               2.7446500606879438E-03
               1.5683656365529299E-03
              -8.0587864484103922E-03
               6.4331636439467134E-04
              -4.2409384488565033E-04
               8.0002417401476916E-04
               2.6564210415129757E-03
              -8.6179766974586423E-03
              -3.2303327248852194E-03
               2.5540480930997108E-03
              -4.5165404042366557E-03
               5.1968380985762215E-03
              -7.5875594374781412E-04
               5.2960557271256358E-03
               5.6074668364043765E-03
               4.2689390840816395E-03
              -1.4592916147429259E-02
              -4.3478730747389524E-03
               1.9959324058061176E-03
               4.2945983613695317E-03
              -2.6670794763790019E-03
              -1.1879676169583039E-03
               5.7162312605529633E-03
               4.0642390969354986E-03
               1.6797411326056834E-03
              -7.6551012511936729E-04
               1.7919485865474437E-03
               1.3891694165212598E-03
               7.3142625810260651E-03
              -4.4136452891716440E-03
              -4.8259405902040323E-03
               3.2184711303775170E-03
               1.2776251803619479E-02
               3.3087790938593569E-03
              -4.6812880468024799E-03
              -8.2412086505462851E-03
              -1.4047647806507023E-03
              -5.1148208875207556E-03
              -9.4508362375858284E-03
               2.4319193741777767E-03
               8.5907859577496627E-03
               1.6103781531631289E-02
               5.1460954937604777E-03
              -1.0848393628943331E-02
         &END THERMOSTAT_ENERGY
         &RNG_INIT
Wiener process for Thermostat # 1        1 F T T   3.7280401166127353E-01        2396824340.0        1285798124.0        1970812289.0        4262378425.0        2500496477.0        3105761546.0             12345.0             12345.0             12345.0             12345.0             12345.0             12345.0             12345.0             12345.0             12345.0             12345.0             12345.0             12345.0
Wiener process for Thermostat # 2        1 F T T  -2.8031459711754392E-01        1517340215.0         764337745.0        1777988352.0        1272471177.0        3093987526.0        2495380513.0        3692455944.0        1366884236.0        2968912127.0         335948734.0        4161675175.0         475798818.0        3692455944.0        1366884236.0        2968912127.0         335948734.0        4161675175.0         475798818.0
Wiener process for Thermostat # 3        1 F T T   7.0414863813957229E-01        1874984675.0        3540139467.0        3102430019.0        1608426380.0         643336117.0        1230365417.0        1015873554.0        1310354410.0        2249465273.0         994084013.0        2912484720.0        3876682925.0        1015873554.0        1310354410.0        2249465273.0         994084013.0        2912484720.0        3876682925.0
Wiener process for Thermostat # 4        1 F T T   2.2606224243119818E-01        3416187057.0        1637601412.0         393440280.0        2948182120.0        3407482107.0        2343296956.0        2338701263.0        1119171942.0        2570676563.0         317077452.0        3194180850.0         618832124.0        2338701263.0        1119171942.0        2570676563.0         317077452.0        3194180850.0         618832124.0
Wiener process for Thermostat # 5        1 F T T  -1.0267294306732384E+00         315072143.0        4137263975.0        4196656129.0        1282237791.0        3639735469.0        1937530485.0        1597262096.0        3906379055.0        3312112953.0        1016013135.0        4099474108.0         275305423.0        1597262096.0        3906379055.0        3312112953.0        1016013135.0        4099474108.0         275305423.0
Wiener process for Thermostat # 6        1 F T T   9.2624835653208748E-01        3222219212.0        3105331301.0        2094058484.0        2511776071.0        3719186732.0        3505559269.0          97147054.0        3131372450.0         829345164.0        3691032523.0        3006063034.0        4259826321.0          97147054.0        3131372450.0         829345164.0        3691032523.0        3006063034.0        4259826321.0
Wiener process for Thermostat # 7        1 F T T  -4.6721006089689310E-01        2921304001.0        3534845789.0         764942181.0        2980414860.0        2807768180.0         274774080.0         796079799.0        2105258207.0         955365076.0        2923159030.0        4116632677.0        3067683584.0         796079799.0        2105258207.0         955365076.0        2923159030.0        4116632677.0        3067683584.0
Wiener process for Thermostat # 8        1 F T T   4.8809173354813140E-01        3327178806.0        3682317356.0        2663069382.0         319044460.0        3975670735.0         562702070.0        3281794178.0        2616230133.0        1457051261.0        2762791137.0        2480527362.0        2282316169.0        3281794178.0        2616230133.0        1457051261.0        2762791137.0        2480527362.0        2282316169.0
Wiener process for Thermostat # 9        1 F T T  -8.1805399140306756E-01         433221438.0         349071730.0        2033385903.0        2639944804.0        3988392127.0        3801627598.0        3777646647.0        1837464056.0        4204654757.0         664239048.0        4190510072.0        2959195122.0        3777646647.0        1837464056.0        4204654757.0         664239048.0        4190510072.0        2959195122.0
Wiener process for Thermostat # 10       1 F T T  -2.7062828385550008E-01        2290601073.0        1666814614.0        3289919364.0        2930088785.0        1500929831.0        1860303943.0        4215590817.0        3862461878.0        1087200967.0        1544910132.0         936383720.0        1611370123.0        4215590817.0        3862461878.0        1087200967.0        1544910132.0         936383720.0        1611370123.0
Wiener process for Thermostat # 11       1 F T T   6.8652417552969780E-01        2151060734.0         580174056.0        1748210725.0         399674445.0        1879492130.0        2741776977.0        1683636369.0         362165168.0         814316280.0         869382050.0         980203903.0        2062101717.0        1683636369.0         362165168.0         814316280.0         869382050.0         980203903.0        2062101717.0
Wiener process for Thermostat # 12       1 F T T   1.2985463821691814E+00        3478492904.0        1830493925.0          17364685.0        2058676739.0        2676153401.0        4087350495.0         272317999.0         166758548.0         310112982.0         201045826.0        1680231254.0         118290799.0         272317999.0         166758548.0         310112982.0         201045826.0        1680231254.0         118290799.0
Wiener process for Thermostat # 13       1 F T T   2.0061703114922356E+00        2097018817.0        1300727704.0         367347443.0         582130443.0        2824054692.0        3111690587.0        2245755202.0        1652682525.0        2865544364.0         721509566.0         209733568.0         592362218.0        2245755202.0        1652682525.0        2865544364.0         721509566.0         209733568.0         592362218.0