 # Version information for this restart file 
 # current date 2023-12-04 12:43:48.655
 # current working dir /scratch/work/courses/CHEM-GA-2671-2023fa/students/sw4384/comp-lab-class-2023/Week12/Runs-Proton
 # Program compiled at                              Sat Dec 12 18:27:15 EST 2020
 # Program compiled on                                         cs001.nyu.cluster
 # Program compiled for                                                nyu-intel
 # Source code revision number                                       git:8c64c6e
 &GLOBAL
   PRINT_LEVEL  LOW
   PROJECT_NAME proton_aimd_1ns_every0.5fs
   RUN_TYPE  MD
   WALLTIME 21600
 &END GLOBAL
 &MOTION
   &GEO_OPT
     OPTIMIZER  BFGS
     MAX_ITER  100
     MAX_DR     3.0000000000000001E-03
     &BFGS
     &END BFGS
   &END GEO_OPT
   &MD
     ENSEMBLE  NVT
     STEPS  2000
     TIMESTEP     4.9999999999999994E-01
     STEP_START_VAL  1998
     TIME_START_VAL     9.9899999999998238E+02
     ECONS_START_VAL    -1.1025841879244936E+03
     TEMPERATURE     3.0000000000000000E+02
     &THERMOSTAT
       TYPE  GLE
       REGION  MASSIVE
       &GLE
         NDIM  5
         A_SCALE     1.0000000000000000E+00
         A_LIST     1.8595758612559999E+02    2.7263853498399998E-01    1.1526100454610001E+01   -3.6414578262600003E+01 \
             2.3173375816020001E+02
         A_LIST    -2.7809524712060002E-01    8.5951591808710006E-05    7.2189048017650004E-01   -1.9844539343859999E-01 \
             4.2409257583420001E-01
         A_LIST    -1.4825808131210000E+01   -7.2189048017650004E-01    1.3590902121280000E+00    5.1498896280349999E+00 \
            -9.9949268450990001E+00
         A_LIST    -1.0372189126880000E+01    1.9844539343859999E-01   -5.1498896280349999E+00    2.6661910891169999E+01 \
             1.1507715495310000E+01
         A_LIST     2.1801346360420001E+02   -4.2409257583420001E-01    9.9949268450990001E+00   -1.1507715495310000E+01 \
             3.0958394565589998E+02
         &THERMOSTAT_ENERGY
               3.4459018237467799E-03
              -8.9707445213608040E-04
              -4.9239396066008629E-03
               5.3542561287754824E-03
              -2.0298265462378812E-02
               3.6771700811328400E-03
              -4.8135168383482202E-03
               7.7187017569487794E-03
               3.8796633270963910E-03
               3.9234148559149484E-03
               1.3164892817316410E-02
              -2.9287076565120123E-03
              -8.1714459281445068E-03
               2.5995767314934510E-03
              -3.2481983444477588E-03
              -1.3916344038977123E-02
               6.4872545266810664E-03
              -4.3665828233635535E-03
              -2.9557487482455807E-03
              -1.5893520591798741E-03
               2.3918217921847108E-03
               6.4919519769068585E-03
              -1.2279913723181296E-02
              -4.5604844403038412E-03
              -1.7254865301054576E-03
              -7.2865714136823056E-04
              -1.6535541618753547E-03
              -4.8919387012052778E-04
               3.8658178919627451E-04
               3.1873376407726204E-03
              -2.6839454416562169E-03
              -1.3889001450109078E-03
               3.1825043750487304E-03
               2.9969971596956993E-03
              -7.1718543053138507E-03
               1.2951049049107544E-02
              -2.2642828095058411E-03
              -2.1794412594818876E-03
               2.5756565876567570E-03
               3.3563816605615238E-05
               3.4081865119905295E-03
              -1.3616922486780628E-02
               1.1290007007483409E-02
               7.5707448846484126E-03
              -1.0913002889167034E-03
               4.2788656760562264E-03
               1.1047540896190420E-02
              -2.0022282492433265E-03
              -8.4806797089370342E-04
              -2.4527686627871582E-03
               2.4568718779153032E-03
               4.9390337193685012E-03
              -2.1580138692018488E-03
               2.9336929474221077E-03
              -1.9414349197993540E-03
               2.9252934406998211E-03
              -6.7670389128970119E-04
               3.7707477492142896E-03
               7.8933966015001019E-03
              -3.2253280428849685E-03
              -5.4022153127543365E-03
              -2.5257747056843414E-03
               1.9104459976430444E-02
              -4.1358970040649718E-03
               2.1736830650325670E-03
               4.7951186747058469E-03
              -1.2490855006641077E-02
               1.6367612714613115E-02
               1.6131582309900767E-02
              -3.5382804899281532E-03
              -6.4013177908528278E-03
              -1.0799080237528690E-02
               2.4675830789048095E-03
               2.9475875206050718E-04
               1.6535157238945063E-03
              -1.4261430530418163E-02
               3.9930841314199886E-03
               1.5073538480260478E-02
               1.2382988441187329E-03
              -7.9182994732029041E-03
               2.6346153103740592E-03
              -7.8606168471280023E-03
               3.5323615032579170E-03
               1.4606660344688902E-03
               5.8691958598828435E-03
               6.4399226566344177E-03
               1.1580724517674761E-03
              -6.6752232655122069E-03
              -9.9141151388215751E-04
              -6.1623956495420254E-03
               3.7017530991116758E-03
              -7.0164032378784817E-03
              -2.3106357055507980E-03
               2.4779427498466404E-03
              -1.5509870381948586E-02
               7.8142572543304315E-03
               4.6251633395480631E-03
               9.9028925310096910E-04
               5.2783881283495482E-03
               6.2201243896826157E-03
              -7.9752922668881489E-03
              -7.7872777287887824E-03
              -5.0620575005028657E-03
              -1.0452584487024266E-02
               1.8356195017834673E-03
               1.2620258197578406E-02
               1.0421875573882757E-03
               8.4045322137366605E-04
               1.9577375828685605E-03
               3.3898578333841321E-04
               6.1314782178868710E-03
               1.1085824408999675E-02
              -9.2561770634924986E-03
               1.2165721869069035E-03
               4.3662352918296824E-03
               3.9367940147082220E-03
              -1.2884909039822633E-02
              -2.1995822449955554E-03
              -1.2832060603020102E-03
               1.5802841453339453E-04
               7.4571882931900330E-03
               2.9906398091434014E-03
               5.9334959482884664E-03
              -2.2876966190890952E-03
              -9.5277884820436903E-03
              -1.0779965889271360E-02
              -2.0750422149998339E-03
               3.3777489756353736E-03
               7.6019194676578737E-03
               1.2440341788390409E-02
              -1.2440204808205579E-02
               5.5611124837055730E-03
              -1.3068696084149237E-03
               2.8770131297420489E-04
               9.1171748905704651E-03
               2.7072993281797501E-03
              -3.4862623561064802E-03
              -5.4743426712203797E-03
              -2.1722188192449883E-03
               2.1050044148659720E-03
               5.3575570809441574E-03
               4.3622564520405640E-03
               1.2251374508292060E-02
              -1.0661935025266295E-02
               1.2072483466212963E-02
              -6.1405888427173002E-03
               2.1220653409155183E-03
               9.9076305204140770E-03
              -2.1924829706870465E-02
               1.5265857734473644E-02
              -1.6634159960213654E-02
               1.0760895049684629E-02
               4.3898223457709230E-03
               9.6734663696965723E-03
               7.2242802139612155E-03
              -5.8686781366515672E-03
               1.7006186510157802E-03
               3.1711224700312042E-03
              -1.1101786712953770E-02
               4.3286777440301348E-03
              -4.5520320940232919E-03
              -5.0022996006708403E-03
               2.0668621113524408E-03
               5.5484674303505300E-03
               7.2341649786417358E-03
               7.1081154122290463E-02
              -3.9365766604825625E-03
               3.3660904025908257E-03
               3.0465011268252271E-02
               1.5254026944638054E-02
               6.9873608880346244E-02
               1.3759694449914721E-02
               5.9115495325300629E-03
               3.4321174870728242E-02
               1.6243030744587470E-03
               2.8830645367075936E-03
               1.9759557188860724E-03
               3.7183727006985333E-04
              -1.8102238617085677E-02
               2.4035080711150454E-04
              -1.1271680857311081E-02
               3.8386302370608189E-03
               9.3906486055486699E-03
              -1.9216229937473058E-03
              -8.7399130902625507E-04
              -2.9657447130680579E-03
               1.2753596471527828E-02
               7.0405964992202932E-04
              -1.5911769043053206E-02
              -1.0548693882303672E-02
              -5.5829281523313342E-03
               1.9091205758313058E-02
               7.5514898168181858E-03
              -5.2203342788650032E-03
               1.7648742662299400E-03
               1.0731438123234668E-02
              -6.6516224988236129E-03
               3.6964098963634100E-03
              -6.6953808066873149E-03
              -1.1914536483081828E-02
               7.0553991116262078E-03
               3.7603372160241628E-03
               1.9396739726934651E-03
               5.8006157637703884E-03
              -1.8180814205411552E-02
              -2.4560313843322878E-03
               1.1484904737627677E-02
               3.7282843848359531E-03
              -3.1451835282144589E-03
               2.9778990056638682E-03
               5.2009839393460456E-03
               1.7098183787955931E-03
               2.4952084917291726E-03
               8.4527683901227113E-03
              -5.1924229470895894E-03
               4.5679076398419428E-03
              -1.3625347039634703E-02
               6.8808872394222845E-03
               6.0333481791821795E-03
               1.8993471500123307E-03
               7.8875651347084207E-04
              -2.3202169263328637E-03
              -1.1311733299377954E-02
              -6.6834736010664873E-04
               1.7861405290314977E-02
              -6.9393926216617541E-03
               2.0512659787249579E-03
               4.5962659640274043E-03
              -2.8427195064174215E-03
              -1.4713625124924184E-03
              -1.9090402473832726E-03
               5.1556606637204860E-03
               1.0681082557662079E-02
              -3.1317358484462795E-03
              -3.3172417354380311E-03
              -4.1515334199808109E-04
               1.6901595369391619E-03
              -3.3792349837913382E-04
              -1.4054857301421878E-03
              -1.2620647890641233E-03
               7.6935113415974128E-03
               1.1441824801748541E-02
               4.5883571138602159E-04
               1.7912425058633228E-03
              -4.6023947490319338E-03
               2.2628246575739945E-03
              -1.0890379823985893E-03
              -1.3050097610933621E-03
              -3.3482605648800694E-03
              -8.5158802586025092E-03
               1.1739857465257198E-02
              -5.6364880007988968E-03
              -2.3968004683042284E-03
              -1.0854258304652826E-02
               6.3989076835098734E-03
              -3.8615686369578802E-03
               7.0029344860346736E-04
               2.0538934857136223E-03
              -1.3247063368906676E-03
               6.0339797311246461E-03
               5.2650162466810306E-03
               6.0871965273584586E-03
               1.3348020748880245E-02
              -4.3814649633300900E-03
               2.9496185994389002E-04
               3.5346577419238861E-03
               4.8306055638220368E-03
              -1.6537034837409445E-03
              -4.2601414622781440E-03
               1.3534926962321572E-02
              -1.6904565334977761E-02
              -5.7112856751519855E-03
               1.2153371331807397E-02
               6.9282789566019881E-03
               2.8974843414424716E-03
               6.8352291050994532E-04
              -1.0638169825991368E-02
               6.9001857435366885E-03
               4.7880679254601747E-03
               2.9469572627303779E-04
              -2.0372718846585862E-03
              -7.7822912274012586E-03
               5.7044109660761813E-05
              -7.4983654326363121E-03
               4.7429204731808281E-03
               1.0275475011195740E-02
              -3.2181223373942674E-03
               4.3842343095938207E-04
              -1.1591388151180208E-02
              -2.7576546274891973E-03
               1.4965959787742070E-02
               1.3175928403979208E-03
              -2.5631943217388777E-03
              -8.8720489695544164E-03
               8.2537071756705518E-03
               9.3900004799416532E-03
              -1.4752671819195288E-02
               1.7184254750379446E-02
               1.0970214001976715E-02
              -1.4629725371630330E-02
              -5.6955017468521057E-04
              -3.6443524551651608E-03
               6.7317446207048630E-03
               1.3429785209810251E-03
              -3.1364385377436717E-03
              -7.7960947013749329E-03
               1.4698732068716312E-03
              -1.2663455350977258E-03
               2.0076904106954463E-03
               2.3011454679662583E-03
              -6.3391984007996635E-04
              -3.9828730262140228E-03
               3.6339709125548397E-03
              -4.0129661803706201E-03
               2.3311531090859229E-03
               5.4380981834743995E-03
              -2.3887286597182025E-03
              -3.1140433847302766E-03
              -1.4305984160849850E-02
              -1.0906319849723244E-02
              -1.7761429025055790E-03
               6.8934516010537156E-03
               5.3655134663086849E-03
               2.9077169879132680E-03
              -6.7783472860925486E-03
               7.4529151244010191E-03
               5.2573203229649354E-03
               5.7957308801418316E-03
              -2.9697782174959554E-03
               5.8123125348664359E-03
              -1.3483064553540399E-02
               7.0036493841007501E-03
               2.4877612848852463E-03
              -9.8012218096103494E-04
               3.6559185110927647E-03
              -1.8462242066408510E-03
               8.4364632315183652E-03
               1.1954971639754415E-03
               6.8646824392659938E-03
              -2.0039977946869187E-03
              -9.8634699647995525E-03
              -2.4343539730215732E-03
               7.8330708494912665E-03
               3.1722737447380227E-03
               2.3086535959872920E-03
               4.7707732420356110E-03
               8.7272348685648177E-03
              -1.2957547220663132E-02
               1.3708333797245943E-02
              -4.2139759834061204E-03
              -3.8101448207838113E-03
               2.4965639211252146E-03
              -9.9237248373437413E-03
               3.1332590208300952E-03
              -2.5332525361021541E-03
              -4.3877550125765276E-03
               3.3739246398836048E-03
               9.5844629085447652E-04
              -1.2543598160940500E-02
               2.4654052451711125E-03
               5.5635167829067855E-03
              -9.4438784860086094E-03
               1.7780503584305225E-02
              -6.5331529147952330E-03
              -1.5718274405431547E-02
               3.1890347435529491E-03
               8.9677521958397271E-03
               7.8686196079144431E-03
              -1.2885357826584710E-02
              -5.9145026976567348E-03
              -3.2787322969637339E-03
               9.3877629142200183E-03
               1.1566577600359378E-03
              -4.6426917427332473E-03
              -2.2285228288016876E-03
               1.5529262781097729E-03
              -6.0449216365855230E-03
              -5.9268069527968967E-03
               8.1530800739136374E-03
               3.8882449821126923E-03
              -1.1120176365955710E-03
               7.3328556007745778E-03
              -4.1123788662861399E-03
              -1.0552701437858750E-03
              -1.8163451143776949E-02
              -2.6866839652064994E-03
               1.7050824939294233E-03
              -2.8625932495930087E-03
               8.6382726871547556E-03
               2.0881183816263246E-03
              -1.1080053334223806E-02
               6.0772914371185257E-03
               1.2071403385845881E-03
               3.1603540693092083E-03
               6.9379349477078469E-03
               5.3724177238190273E-03
               7.4030969883728120E-04
              -7.4382639822921344E-03
               1.9003275896639963E-03
               2.1253567450694004E-03
              -2.9104617925563162E-03
               2.8042972613328268E-03
              -4.8017469793627402E-03
              -8.5552648806330161E-03
               7.8953990994695723E-03
              -3.8844251402523058E-03
               9.4929509988183509E-03
              -6.3642429366827700E-04
              -1.5392702268780807E-03
               6.9950677473360281E-04
               3.1606897664871779E-03
              -5.2122952149349618E-03
               3.5800433890783509E-03
              -6.2752535150873063E-04
               2.3039137464411427E-03
               3.5989790977732404E-03
              -8.6950473436119696E-03
              -5.0176171166644084E-03
              -9.5232953514495517E-04
               3.8555378669174055E-03
               3.4323390028011538E-03
              -3.1862834877440277E-03
               1.3137726237985085E-03
              -7.8269926502088933E-04
               1.4110031574397696E-02
              -1.5281730864781870E-02
               2.7420568780211021E-03
              -4.1950472557504307E-03
               6.5294056243325369E-04
              -8.1732565495308942E-04
              -1.2563052187987657E-02
              -2.8893727151361693E-03
              -1.7037242896850577E-02
               1.5412093969932841E-02
               1.8322524656095025E-02
               4.6449538309516957E-03
              -5.3966097804478324E-03
              -4.0211111650431029E-04
              -1.0312910862195388E-02
              -2.7638810255021223E-03
               1.8076420262585813E-02
              -1.0934715007640645E-03
              -6.5797785091533849E-03
               1.6223180010570829E-02
               3.3910512397557994E-03
               8.6249455406507084E-03
              -6.6405348255950377E-03
               8.3818593598507900E-03
              -2.5412645577406827E-03
              -5.8422920933606983E-03
              -1.5732781265626664E-03
              -9.4803241663069110E-03
               5.2393246597048030E-03
              -1.1954641657824167E-03
              -2.8923141796501593E-03
              -3.1385769603510449E-03
              -2.3185281188528334E-02
              -2.6982054078129505E-03
              -8.2615164004938343E-03
              -1.1689250019756374E-03
               1.2996762027150275E-02
               1.4923934076993160E-02
               3.7627768128062756E-04
               5.5754773031866638E-03
              -1.2621134969030708E-03
               8.1054400105254124E-03
              -1.1888214692965991E-02
              -1.7013587962953678E-03
               1.0125900031875834E-02
              -1.2531239705032648E-02
               3.6069792798176016E-03
              -9.1709190349415241E-04
              -2.3365417843246257E-04
              -1.3197402606890359E-03
              -1.4554027300263797E-02
               4.8198916430229125E-03
               1.7116038085210499E-03
               1.1132171180150800E-02
              -8.3783050127417859E-03
              -7.2164993204057977E-03
              -4.1623125132975959E-03
               9.9581455687621119E-04
               9.4131737494217403E-03
               2.4171220174275141E-03
              -5.2807588863614790E-03
              -4.7863651962744345E-04
               2.9179697273710903E-03
              -1.2682022700120435E-02
               1.5428470989673339E-02
              -2.3539108868324021E-03
               7.7506125083278785E-03
               4.9554638578089092E-03
               1.0312273054938871E-02
              -1.0720205330125725E-02
              -7.1817580498440350E-04
              -8.8997348795483329E-03
               5.1819820806783190E-03
               4.8462669889216044E-03
              -5.9868030092438424E-04
               5.8706145424985944E-03
              -4.9668649563569230E-04
               4.2558521923475598E-03
              -1.4548766153866067E-02
               1.9486937276638139E-02
               1.1051809112473847E-02
              -1.2911253909518992E-02
              -2.1248593577507828E-03
               2.5228900015749475E-03
               4.7989936077948150E-03
              -1.5155825008911948E-03
              -4.5574669469967610E-03
               1.0400216453028247E-02
              -3.5575723825462583E-03
              -1.4372430410449668E-02
               1.1442511957117069E-02
              -1.9765990866045812E-02
               1.0918532851620208E-03
               3.5476879715256450E-03
               1.5104424138694038E-05
               9.5279670323524038E-03
              -1.7799568626227082E-02
               4.5283603629886933E-03
               4.3383134510555721E-03
               5.5176188068920239E-03
              -8.8567328088544166E-04
               5.3801726501141092E-03
              -1.2903556343295351E-03
              -4.2471343302718963E-03
               3.1265421174767080E-03
              -1.1568003227148686E-04
               1.7039181491543490E-02
               5.7452704638910591E-04
              -4.3492390678984945E-03
              -3.1286227979620824E-03
               4.3879789458037277E-03
               2.6383998336993865E-03
               9.7825454950022268E-04
              -8.0894784077854415E-03
               9.0224327569246989E-04
              -9.6256710446231629E-04
               1.0010708101392397E-03
               2.5845005987772322E-03
              -8.5626542051335467E-03
              -3.2095538936437427E-03
               2.6056993367846205E-03
              -4.8694151830502965E-03
               4.8574397892193824E-03
              -6.8061199128063659E-04
               5.5305323610957240E-03
               5.5967391628416255E-03
               3.8638591272636882E-03
              -1.4427696388790422E-02
              -4.2681144632734846E-03
               2.0269070585449953E-03
               4.2670492033899344E-03
              -2.4337988160491675E-03
              -1.2477970314464721E-03
               5.6886765471681755E-03
               4.3863760388499849E-03
               1.5905972998789034E-03
              -1.2649804621611810E-03
               2.0917088542599968E-03
               1.4152313343341401E-03
               6.7105939525327471E-03
              -3.9545449684487395E-03
              -4.1287065699756112E-03
               3.1882861302689669E-03
               1.2980472656971517E-02
               3.3127578944161145E-03
              -4.7324335520992945E-03
              -8.2833383394980229E-03
              -1.5727657782122061E-03
              -4.6822379623224150E-03
              -9.4737427135899496E-03
               2.4560554142481605E-03
               8.5248655906212736E-03
               1.6121233325591809E-02
               4.9744479862704073E-03
              -1.1117661005829147E-02
         &END THERMOSTAT_ENERGY
         &RNG_INIT
Wiener process for Thermostat # 1        1 F T T  -1.5601997779545997E+00        4027757407.0        1559045809.0        3403552754.0        1703120254.0         453778739.0        2861026355.0             12345.0             12345.0             12345.0             12345.0             12345.0             12345.0             12345.0             12345.0             12345.0             12345.0             12345.0             12345.0
Wiener process for Thermostat # 2        1 F T T  -4.0112764818655514E-02        3838101567.0        1430396723.0        1556923290.0        2889325561.0         607612135.0        3761282217.0        3692455944.0        1366884236.0        2968912127.0         335948734.0        4161675175.0         475798818.0        3692455944.0        1366884236.0        2968912127.0         335948734.0        4161675175.0         475798818.0
Wiener process for Thermostat # 3        1 F T T  -2.7485675335982579E-01         482699311.0        2506409672.0        1202736307.0        1073196783.0        1141297417.0        2856513754.0        1015873554.0        1310354410.0        2249465273.0         994084013.0        2912484720.0        3876682925.0        1015873554.0        1310354410.0        2249465273.0         994084013.0        2912484720.0        3876682925.0
Wiener process for Thermostat # 4        1 F T T  -9.8957058820594379E-01        3129827523.0        3549124345.0        1353678049.0        1344233659.0        2578763699.0        1106953444.0        2338701263.0        1119171942.0        2570676563.0         317077452.0        3194180850.0         618832124.0        2338701263.0        1119171942.0        2570676563.0         317077452.0        3194180850.0         618832124.0
Wiener process for Thermostat # 5        1 F T T   8.1743834600370391E-01         587879607.0         702838090.0         820286405.0        1159088393.0        1840431053.0        2379049004.0        1597262096.0        3906379055.0        3312112953.0        1016013135.0        4099474108.0         275305423.0        1597262096.0        3906379055.0        3312112953.0        1016013135.0        4099474108.0         275305423.0
Wiener process for Thermostat # 6        1 F T T  -4.6635220676026440E-01        1255338812.0        2941627828.0        2767710176.0        1701464963.0        2824905014.0        2257709657.0          97147054.0        3131372450.0         829345164.0        3691032523.0        3006063034.0        4259826321.0          97147054.0        3131372450.0         829345164.0        3691032523.0        3006063034.0        4259826321.0
Wiener process for Thermostat # 7        1 F T T  -2.7221417990508723E-01        2928923925.0        1475590831.0        3028549759.0        1729569924.0         123262326.0        1965188850.0         796079799.0        2105258207.0         955365076.0        2923159030.0        4116632677.0        3067683584.0         796079799.0        2105258207.0         955365076.0        2923159030.0        4116632677.0        3067683584.0
Wiener process for Thermostat # 8        1 F T T  -1.3371509559371584E+00        3293786404.0        2324351260.0        4224364702.0        1341956089.0         912321799.0        2697559406.0        3281794178.0        2616230133.0        1457051261.0        2762791137.0        2480527362.0        2282316169.0        3281794178.0        2616230133.0        1457051261.0        2762791137.0        2480527362.0        2282316169.0
Wiener process for Thermostat # 9        1 F T T  -8.7225140957356684E-01         657961678.0        1513147170.0        2219186603.0        4111646695.0         616753226.0        2747528653.0        3777646647.0        1837464056.0        4204654757.0         664239048.0        4190510072.0        2959195122.0        3777646647.0        1837464056.0        4204654757.0         664239048.0        4190510072.0        2959195122.0
Wiener process for Thermostat # 10       1 F T T  -6.2889449580622436E-01          96284293.0        2446379684.0        3801610533.0        2961863039.0        1877110468.0         129512113.0        4215590817.0        3862461878.0        1087200967.0        1544910132.0         936383720.0        1611370123.0        4215590817.0        3862461878.0        1087200967.0        1544910132.0         936383720.0        1611370123.0
Wiener process for Thermostat # 11       1 F T T   5.7191327297384098E-01         909895394.0        1862319182.0        2400367466.0        1201802882.0        2818881371.0          83822050.0        1683636369.0         362165168.0         814316280.0         869382050.0         980203903.0        2062101717.0        1683636369.0         362165168.0         814316280.0         869382050.0         980203903.0        2062101717.0
Wiener process for Thermostat # 12       1 F T T  -2.0098512161557830E-01        4281566709.0        2729512869.0         275332126.0         437149450.0        1041778670.0        1778805263.0         272317999.0         166758548.0         310112982.0         201045826.0        1680231254.0         118290799.0         272317999.0         166758548.0         310112982.0         201045826.0        1680231254.0         118290799.0
Wiener process for Thermostat # 13       1 F T T   9.4560796151122029E-01        3557498645.0        2583014714.0        2425630516.0         920535172.0        3770643442.0         978988578.0        2245755202.0        1652682525.0        2865544364.0         721509566.0         209733568.0         592362218.0        2245755202.0        1652682525.0        2865544364.0         721509566.0         209733568.0         592362218.0